ALGO = Fast
EDIFF = 0.00030000000000000003
ENCUT = 520.0
IBRION = 2
ISIF = 3
ISMEAR = -5
ISPIN = 2
LASPH = True
LDAU = True
LDAUJ = 0 0 0
LDAUL = 0 2 0
LDAUPRINT = 1
LDAUTYPE = 2
LDAUU = 0 6.2 0
LMAXMIX = 6
LORBIT = 11
LREAL = Auto
LWAVE = False
MAGMOM = 1*0.0 1*0.012 2*-0.0 2*0.001
NELM = 100
NSW = 99
PREC = Accurate
SIGMA = 0.05
