Cr_Al ~[0.5000,0.5000,0.5000] 0
1.0
   6.7097851220000004    4.7445325279999997   -5.8108250459999997
  -8.3872189839999987    4.7445140180000003    2.9054156249999994
   1.6774483760000001    4.7445305019999999    8.7162426849999992
Al Cr Fe O
23 1 12 48
direct
   0.3537983648097551    0.4171025184624223    0.7650878607356844 Al
  -0.0007710990314949    0.2207576166014676    0.2708869497601430 Al
   0.6770700830051208    0.5893079351534946    0.2295080462022636 Al
   0.0016442502464523    0.7604229562864474    0.7264269504212546 Al
   0.7019174042686769    0.1019223007543770    0.7359462262278126 Al
   0.3366772847441990    0.9474610418776915    0.2708043055086223 Al
   0.1832526780085428    0.3848440061770306    0.9808018826302365 Al
   0.8600503214549189    0.1965641119992818    0.4787452468559662 Al
   0.7879422792577756    0.6363997971056045    0.9845118741608783 Al
   0.4741329926530577   -0.0129548583818535    1.0079449936539771 Al
   0.2068576133898916    0.8642524195812156    0.4973503382827974 Al
   0.5198476834102007    0.4948711001451732    0.9943435410480328 Al
   0.1486067839790334    0.3181136033084487    0.5389273773808656 Al
   0.8468960139385127    0.6749219062200152    0.5169789055465061 Al
   0.1349183460667357    0.8311684491872852    1.0040744068150873 Al
   0.8411579983190811    0.1849366815561572    0.9853678397930605 Al
   0.5028102902961333    0.9766736525160293    0.5040435866619231 Al
   0.3678716710624250    0.1777370978639377    0.9914586759444927 Al
  -0.0435916084900912   -0.0269904429522007    0.4916894893295969 Al
   0.6865605339657350    0.3318226916142111    0.4992508894007585 Al
   0.0259977750558872    0.5086803461085867    0.9983742297801446 Al
   0.6542023943775730    0.7787698751453531    1.0052974028735273 Al
   0.3661028654313990    0.6642731130924443    0.5116445868590598 Al
   0.4796768341124253    0.4699069190978796    0.5363078935650745 Cr
   0.3425922434633401    0.2210078722265152    0.3312072989938029 Fe
   0.0042071195088146    0.0703552445800206    0.8054034018781220 Fe
   0.6883521885002690    0.4221433303390025    0.8195938043341791 Fe
  -0.0167595622732439    0.5506379550835144    0.3578984032925734 Fe
   0.6723368052358865    0.9084757988620030    0.2798675067978416 Fe
   0.3361442457033244    0.7230910725455993    0.8106258416806402 Fe
   0.3373765481633482    0.5975949194346912    0.1589153040432493 Fe
   0.0135079662845847    0.4526142996833066    0.6977028326228348 Fe
   0.6709596843498494    0.7916856078480924    0.7036992048988834 Fe
  -0.0257626769150067    0.9333339216087305    0.2028723036218497 Fe
   0.6724268315672951    0.2686034983104829    0.1662595802973868 Fe
   0.3391394305558785    0.1107003882438998    0.7112777836463242 Fe
   0.3335242795758270    0.3091379174160208    0.0844289794090206 O
   1.0098621340505376    0.1577319768013172    0.5860589318969918 O
   0.7280545303067527    0.4599634069237484    0.6230270202577426 O
   0.9765491153383346    0.6364249111933713    0.1273570787700575 O
   0.6746303572327114    0.9658522941825808    0.0704482832292710 O
   0.3354446853786894    0.7630592462839912    0.5995383305255856 O
   0.1988469475766843    0.4541564903721611    0.6194993336881471 O
   0.8397241804747667    0.2283629977254261    0.1297988073180335 O
   0.5306390328117908    0.6335168095627735    0.1389411555198171 O
   0.8909009077295115    0.7981433934771140    0.6081960929359428 O
   0.5287242900957998    0.1345457514717693    0.6293621332972159 O
   0.2174101807491809    0.9466941924085913    0.1070039816650419 O
   0.4586213749461032    0.5716982570936182    0.6602344439190477 O
   0.1531900983896890    0.4193357016900323    0.1333061486613835 O
   0.8083306226142034    0.7807504314070991    0.1176959087825500 O
   0.1263081241340253    0.9276622318949925    0.5992839449354691 O
   0.8211631668510615    0.2623884633127862    0.6200933172399966 O
   0.4444752126818563    0.0737955813893346    0.1018853893956977 O
   0.3406776515414039    0.3099223634329630    0.6182274422179320 O
   1.0176722567080538    0.1512745591075805    0.1396144479569782 O
   0.6824148674495097    0.4885791740904875    0.1166783165297576 O
   0.9840053263890625    0.6159925274397682    0.6213327506989760 O
   0.6585953561900759    0.9729177243642826    0.6475118644568820 O
   0.3530889789904983    0.8272915629735348    0.1271096958577888 O
   0.2294287106248623    0.2511749316745251    0.8882935721803681 O
   0.8258194242299596    0.0333089589553899    0.3785878485236019 O
   0.5212053031351925    0.3989630261888530    0.3980519635600211 O
   0.8513851834058643    0.5343440258706940    0.9199118310826392 O
   0.5425065489648473    0.9162904012141183    0.8782734849118252 O
   0.1898145501586724    0.7577597678514267    0.3893843210730970 O
   0.3565343495080571    0.4967588373268367    0.8905618856270702 O
  -0.0036553194656076    0.3492176763184232    0.3755098856923847 O
   0.7235802246420342    0.7038840719060436    0.3767058763876421 O
   0.0006714552870301    0.8407024101408005    0.8719277714653819 O
   0.6557058938596281    0.1597693916798564    0.8859853096011224 O
   0.3290868100502689    0.0244819511142877    0.3668005185559949 O
   0.3425418383536587    0.5288659675827249    0.3540089890105255 O
  -0.0073481245702840    0.4077878617759759    0.8779247645477842 O
   0.6740546182134177    0.7059156298301600    0.8810997157129623 O
   0.0033695831266434    0.8819768569454134    0.3915865723762261 O
   0.6645917279827155    0.1691606873794902    0.4064329243981440 O
   0.3117380917200165    0.0108830914441428    0.8916839096121483 O
   0.4532039700454292    0.3583665264875611    0.8901396314905008 O
   0.1383225017597933    0.1781465334374953    0.4143820718465087 O
   0.8313408779127384    0.5408339388751008    0.3511489317383141 O
   0.1416765665369285    0.7279777964264413    0.8758601599845511 O
   0.8347141392562337    0.0507106178907892    0.9049381977009531 O
   0.4825866918430655    0.8666110604885932    0.3589610009050109 O
