pymatgen with grid density = 966 / number of atoms
0
Gamma
7 6 2
