Al2 Cl2 O2
1.0
   3.1699000000000002    0.0000000000000000    0.0000000000000000
   0.0000000000000000    3.6607560000000001    0.0000000000000000
   0.0000000000000000    0.0000000000000000    8.4954859999999996
Al Cl O
2 2 2
direct
   0.5000000000000000    0.0000000000000000    0.9020640000000000 Al
   0.0000000000000000    0.5000000000000000    0.0979360000000000 Al
   0.0000000000000000    0.0000000000000000    0.7036819999999990 Cl
   0.5000000000000000    0.5000000000000000    0.2963179999999990 Cl
   0.5000000000000000    0.5000000000000000    0.9543189999999990 O
   0.0000000000000000    0.0000000000000000    0.0456810000000000 O
