pymatgen with grid density = 1140 / number of atoms
0
Gamma
4 1 3
