Al4 P12 O36
1.0
   5.8732191100000000    0.0000000000000000   -1.5876938300000001
   0.0000000000000000   15.0597715300000008    0.0000000000000000
   0.0045972200000000    0.0000000000000000    8.1856572500000002
Al P O
4 12 36
direct
   0.6150768400000000    0.3617501500000000    0.3767990300000000 Al
   0.3849231600000000    0.8617501500000000    0.1232009700000000 Al
   0.3849231600000000    0.6382498500000000    0.6232009700000000 Al
   0.6150768400000000    0.1382498500000000    0.8767990300000000 Al
   0.7013058400000001    0.1628835400000000    0.5168994500000000 P
   0.2986941600000000    0.6628835400000000    0.9831005500000001 P
   0.2986941600000000    0.8371164600000001    0.4831005500000000 P
   0.7013058400000001    0.3371164600000000    0.0168994500000000 P
   0.6448110600000000    0.4556946300000000    0.7180161300000000 P
   0.3551889400000000    0.9556946300000000    0.7819838700000000 P
   0.3551889400000000    0.5443053700000000    0.2819838700000000 P
   0.6448110600000000    0.0443053700000000    0.2180161300000000 P
   0.0848115900000000    0.3869868300000000    0.2905886300000000 P
   0.9151894100000000    0.8869868300000000    0.2094113700000000 P
   0.9151894100000000    0.6130131700000000    0.7094113700000000 P
   0.0848115900000000    0.1130131700000000    0.7905886300000000 P
   0.3057873900000000    0.3418965200000000    0.3551623200000000 O
   0.6942126100000000    0.8418965200000000    0.1448386800000000 O
   0.6942126100000000    0.6581034800000000    0.6448376800000000 O
   0.3057873900000000    0.1581034800000000    0.8551623200000000 O
   0.9225770600000001    0.3849790500000000    0.3970222500000000 O
   0.0774229400000000    0.8849790500000000    0.1029777500000000 O
   0.0774229400000000    0.6150209500000000    0.6029777500000000 O
   0.9225770600000001    0.1150209500000000    0.8970222500000000 O
   0.6748507300000001    0.2418083400000000    0.4079694600000000 O
   0.3251492700000000    0.7418083400000001    0.0920305400000000 O
   0.3251492700000000    0.7581916600000000    0.5920305400000000 O
   0.6748507300000001    0.2581916600000000    0.9079694600000000 O
   0.6646678300000000    0.3786629600000000    0.6105956700000000 O
   0.3353321700000000    0.8786629600000000    0.8894043300000000 O
   0.3353321700000000    0.6213370400000000    0.3894043300000000 O
   0.6646678300000000    0.1213370400000000    0.1105956700000000 O
   0.5660462400000000    0.1542033100000000    0.6421650300000000 O
   0.4339537600000000    0.6542033100000000    0.8578349700000000 O
   0.4339537600000000    0.8457966900000000    0.3578349700000000 O
   0.5660462400000000    0.3457966900000000    0.1421650300000000 O
   0.4453399900000000    0.5153108400000000    0.6610071000000000 O
   0.5546600100000000    0.0153108400000000    0.8389928999999990 O
   0.5546600100000000    0.4846881600000000    0.3389929000000000 O
   0.4453399900000000    0.9846891600000001    0.1610071000000000 O
   0.6503798700000000    0.0768604600000000    0.4019429900000000 O
   0.3496201300000000    0.5768604600000000    0.0980570100000000 O
   0.3496201300000000    0.9231395400000000    0.5980570100000000 O
   0.6503798700000000    0.4231395400000000    0.9019429900000000 O
   0.8735071900000000    0.5123797200000000    0.7534134600000000 O
   0.1264928100000000    0.0123797200000000    0.7465865400000000 O
   0.1264928100000000    0.4876202800000000    0.2465865400000000 O
   0.8735071900000000    0.9876202800000000    0.2534134600000000 O
   0.9654912800000001    0.1522123200000000    0.6084973200000000 O
   0.0345087200000000    0.6522123200000001    0.8915026800000000 O
   0.0345087200000000    0.8477876800000000    0.3915026800000000 O
   0.9654912800000001    0.3477876800000000    0.1084973200000000 O
