pymatgen with grid density = 3176 / number of atoms
0
Gamma
3 3 3
