Al45 Cr7
1.0
   3.7803770000000001   10.2994649999999996    0.0000000000000000
  -3.7803770000000001   10.2994649999999996    0.0000000000000000
   0.0000000000000000    3.2602579999999999   10.4299809999999997
Al Cr
45 7
direct
   0.5000000000000000    0.5000000000000000    0.5000000000000000 Al
   0.3849209999999990    0.3849209999999990    0.2291810000000000 Al
   0.6150789999999990    0.6150789999999990    0.7708189999999990 Al
   0.7075779999999990    0.7075779999999990    0.5139790000000000 Al
   0.2924219999999990    0.2924219999999990    0.4860210000000000 Al
   0.6259439999999999    0.6259439999999999    0.3659150000000000 Al
   0.3740560000000000    0.3740560000000000    0.6340850000000000 Al
   0.4779469999999990    0.4779469999999990    0.7563489999999990 Al
   0.5220530000000000    0.5220530000000000    0.2436509999999990 Al
   0.9194319999999990    0.9194319999999990    0.4396200000000000 Al
   0.0805680000000000    0.0805680000000000    0.5603800000000001 Al
   0.8715149999999990    0.8715149999999990    0.1121330000000000 Al
   0.1284850000000000    0.1284850000000000    0.8878670000000000 Al
   0.9096130000000000    0.9096130000000000    0.8425750000000000 Al
   0.0903870000000000    0.0903870000000000    0.1574249999999990 Al
   0.7760200000000000    0.7760200000000000    0.9906140000000000 Al
   0.2239800000000000    0.2239800000000000    0.0093860000000000 Al
   0.0051690000000000    0.6314339999999991    0.3549219999999990 Al
   0.3685660000000000    0.9948309999999991    0.6450779999999990 Al
   0.9948309999999991    0.3685660000000000    0.6450779999999990 Al
   0.6314339999999991    0.0051690000000000    0.3549219999999990 Al
   0.2483780000000000    0.6130590000000000    0.9902240000000000 Al
   0.3869410000000000    0.7516220000000000    0.0097760000000000 Al
   0.7516220000000000    0.3869410000000000    0.0097760000000000 Al
   0.6130590000000000    0.2483780000000000    0.9902240000000000 Al
   0.2243510000000000    0.8474370000000000    0.7948539999999999 Al
   0.1525630000000000    0.7756489999999990    0.2051460000000000 Al
   0.7756489999999990    0.1525630000000000    0.2051460000000000 Al
   0.8474370000000000    0.2243510000000000    0.7948539999999999 Al
   0.0045040000000000    0.3750500000000001    0.3809050000000000 Al
   0.6249500000000000    0.9954959999999990    0.6190950000000000 Al
   0.9954959999999990    0.6249500000000000    0.6190950000000000 Al
   0.3750500000000001    0.0045040000000000    0.3809050000000000 Al
   0.1510490000000000    0.7577769999999990    0.6217570000000000 Al
   0.2422230000000000    0.8489510000000000    0.3782430000000000 Al
   0.8489510000000000    0.2422230000000000    0.3782430000000000 Al
   0.7577769999999990    0.1510490000000000    0.6217570000000000 Al
   0.1415229999999990    0.5276320000000000    0.8547690000000000 Al
   0.4723679999999990    0.8584769999999990    0.1452310000000000 Al
   0.8584769999999990    0.4723679999999990    0.1452310000000000 Al
   0.5276320000000000    0.1415229999999990    0.8547690000000000 Al
   0.1061360000000000    0.4808940000000000    0.1343020000000000 Al
   0.5191060000000000    0.8938640000000000    0.8656980000000000 Al
   0.8938640000000000    0.5191060000000000    0.8656980000000000 Al
   0.4808940000000000    0.1061360000000000    0.1343020000000000 Al
   0.0000000000000000    0.0000000000000000    0.0000000000000000 Cr
   0.7497940000000000    0.7497940000000000    0.2382729999999990 Cr
   0.2502060000000000    0.2502060000000000    0.7617269999999990 Cr
   0.2400930000000000    0.5895040000000000    0.4178870000000000 Cr
   0.4104959999999990    0.7599070000000000    0.5821130000000000 Cr
   0.7599070000000000    0.4104959999999990    0.5821130000000000 Cr
   0.5895040000000000    0.2400930000000000    0.4178870000000000 Cr
