Be4 Al8 O16
1.0
   4.4214873399999997    0.0000000000000000    0.0000000000000000
   0.0000000000000000    5.4680433500000003    0.0000000000000000
   0.0000000000000000    0.0000000000000000    9.3937252299999994
Be Al O
4 8 16
direct
   0.0666059900000000    0.2500000000000000    0.5924337700000000 Be
   0.9333940100000000    0.7500000000000000    0.4075662300000000 Be
   0.4333940100000000    0.2500000000000000    0.0924337700000000 Be
   0.5666059900000000    0.7500000000000000    0.9075662300000000 Be
   0.4947818300000000    0.7500000000000000    0.2274887300000000 Al
   0.9947818300000000    0.2500000000000000    0.2725112700000000 Al
   0.5052181700000000    0.2500000000000000    0.7725112700000000 Al
   0.0052181700000000    0.7500000000000000    0.7274887300000000 Al
   0.5000000000000000    0.5000000000000000    0.5000000000000000 Al
  -0.0000000000000000    0.5000000000000000   -0.0000000000000000 Al
   0.5000000000000000    0.0000000000000000    0.5000000000000000 Al
  -0.0000000000000000    0.0000000000000000   -0.0000000000000000 Al
   0.7566023900000001    0.5154748600000000    0.3366992800000000 O
   0.2566023900000000    0.4845251400000000    0.1633007200000000 O
   0.2433976100000000    0.0154748600000000    0.6633007200000001 O
   0.7433976100000000    0.9845251400000000    0.8366992800000000 O
   0.2566023900000000    0.0154748600000000    0.1633007200000000 O
   0.2433976100000000    0.4845251400000000    0.6633007200000001 O
   0.7566023900000001    0.9845251400000000    0.3366992800000000 O
   0.7433976100000000    0.5154748600000000    0.8366992800000000 O
   0.2125555700000000    0.7500000000000000    0.9096664700000000 O
   0.7125555700000000    0.2500000000000000    0.5903335300000000 O
   0.7874444300000000    0.2500000000000000    0.0903335300000000 O
   0.2874444300000000    0.7500000000000000    0.4096664700000000 O
   0.7590036600000000    0.7500000000000000    0.5668487100000000 O
   0.2590036600000000    0.2500000000000000    0.9331512900000000 O
   0.2409963400000000    0.2500000000000000    0.4331512900000000 O
   0.7409963400000000    0.7500000000000000    0.0668487100000000 O
