pymatgen with grid density = 3019 / number of atoms
0
Gamma
13 13 4
