Al4
1.0
   1.4285730000000001   -2.4743620000000002    0.0000000000000000
   1.4285730000000001    2.4743620000000002    0.0000000000000000
   0.0000000000000000    0.0000000000000000    9.2969849999999994
Al
4
direct
   0.0000000000000000    0.0000000000000000    0.0000000000000000 Al
   0.3333330000000000    0.6666670000000000    0.2500000000000000 Al
   0.0000000000000000    0.0000000000000000    0.5000000000000000 Al
   0.6666670000000000    0.3333330000000000    0.7500000000000000 Al
