pymatgen with grid density = 1997 / number of atoms
0
Gamma
7 7 7
