Al4 S6 O24                              
   1.00000000000000     
     7.5715722839438975   -4.0555078465253898    0.0028479901102138
     7.5715736538885325    4.0555082263579587    0.0028448946485447
     5.3968438634287885   -0.0000002163910481    6.6820681031715106
  Al              S               O             
     4     6    24
Direct
  0.1434726846208340  0.1434719546212220  0.1434720546265866
  0.8565279553791693  0.8565269853787756  0.8565280953734117
  0.3518425721799160  0.3518430321798191  0.3518427721785545
  0.6481564178200856  0.6481578078201792  0.6481572678214417
  0.5393246253348383  0.9638352665778994  0.2484849739624240
  0.2484855439642235  0.5393244653286555  0.9638353165841965
  0.9638352265718275  0.2484852139647556  0.5393238853304771
  0.7515149960357785  0.4606762046713430  0.0361642634158042
  0.4606750846651662  0.0361650034221017  0.7515145160375765
  0.0361648034281678  0.7515147260352464  0.4606754746695195
  0.1843617539910639  0.5460453055489017  0.4764703682362201
  0.4764706781742966  0.1843617240164301  0.5460448855345683
  0.5460474255987690  0.4764685181994606  0.1843613740031001
  0.8156382660089377  0.4539529444510956  0.5235312017637820
  0.5235295418257003  0.8156386159835695  0.4539541144654272
  0.4539554344012333  0.5235294618005429  0.8156379659969023
  0.1120667598471307  0.8950758057471192  0.2633487673458004
  0.2633485874207959  0.1120671398828391  0.8950754757137381
  0.8950755157305454  0.2633499673665651  0.1120649399102058
  0.8879347601528672  0.1049250542528808  0.7366491126542019
  0.2051084259051901  0.3794510106772807  0.9922493717647880
  0.3794517906978148  0.9922485318130243  0.2051087858380823
  0.9922467518053214  0.2051116859050987  0.3794536506155684
  0.7948888940948085  0.6205459893227198  0.0077526682352103
  0.6205485093021887  0.0077513681869745  0.7948908141619202
  0.0077514481946789  0.7948915840949017  0.6205480493844302
  0.2280043201436488  0.5202508772579278  0.1564046999763123
  0.5202510472474957  0.1564041899302546  0.2280034201513305
  0.1564021999032668  0.2280042401172148  0.5202516073282135
  0.7719964798563463  0.4797476827420668  0.8435976100236871
  0.4797490327525038  0.8435955600697460  0.7719957698486735
  0.8435956200967376  0.7719959298827851  0.4797492726717882
  0.1049236542694569  0.7366513726334319  0.8879332900897969
  0.7366511925792001  0.8879338001171605  0.1049241742862614
 
  0.00000000E+00  0.00000000E+00  0.00000000E+00
  0.00000000E+00  0.00000000E+00  0.00000000E+00
  0.00000000E+00  0.00000000E+00  0.00000000E+00
  0.00000000E+00  0.00000000E+00  0.00000000E+00
  0.00000000E+00  0.00000000E+00  0.00000000E+00
  0.00000000E+00  0.00000000E+00  0.00000000E+00
  0.00000000E+00  0.00000000E+00  0.00000000E+00
  0.00000000E+00  0.00000000E+00  0.00000000E+00
  0.00000000E+00  0.00000000E+00  0.00000000E+00
  0.00000000E+00  0.00000000E+00  0.00000000E+00
  0.00000000E+00  0.00000000E+00  0.00000000E+00
  0.00000000E+00  0.00000000E+00  0.00000000E+00
  0.00000000E+00  0.00000000E+00  0.00000000E+00
  0.00000000E+00  0.00000000E+00  0.00000000E+00
  0.00000000E+00  0.00000000E+00  0.00000000E+00
  0.00000000E+00  0.00000000E+00  0.00000000E+00
  0.00000000E+00  0.00000000E+00  0.00000000E+00
  0.00000000E+00  0.00000000E+00  0.00000000E+00
  0.00000000E+00  0.00000000E+00  0.00000000E+00
  0.00000000E+00  0.00000000E+00  0.00000000E+00
  0.00000000E+00  0.00000000E+00  0.00000000E+00
  0.00000000E+00  0.00000000E+00  0.00000000E+00
  0.00000000E+00  0.00000000E+00  0.00000000E+00
  0.00000000E+00  0.00000000E+00  0.00000000E+00
  0.00000000E+00  0.00000000E+00  0.00000000E+00
  0.00000000E+00  0.00000000E+00  0.00000000E+00
  0.00000000E+00  0.00000000E+00  0.00000000E+00
  0.00000000E+00  0.00000000E+00  0.00000000E+00
  0.00000000E+00  0.00000000E+00  0.00000000E+00
  0.00000000E+00  0.00000000E+00  0.00000000E+00
  0.00000000E+00  0.00000000E+00  0.00000000E+00
  0.00000000E+00  0.00000000E+00  0.00000000E+00
  0.00000000E+00  0.00000000E+00  0.00000000E+00
  0.00000000E+00  0.00000000E+00  0.00000000E+00
