Al4 S6 O24
1.0
   7.4872380700000001   -4.0106512900000002    0.0026250700000000
   7.4872394099999999    4.0106516299999999    0.0026220400000000
   5.3365635100000004   -0.0000001900000000    6.6079686100000004
Al S O
4 6 24
direct
   0.1433837800000000    0.1433830500000000    0.1433831500000000 Al
   0.8566168600000000    0.8566158900000000    0.8566170000000000 Al
   0.3519116100000000    0.3519120700000000    0.3519118100000000 Al
   0.6480873800000000    0.6480887700000000    0.6480882300000000 Al
   0.5393947100000001    0.9637490100000000    0.2484438100000000 S
   0.2484443800000000    0.5393945500000000    0.9637490600000000 S
   0.9637489700000000    0.2484440500000000    0.5393939700000000 S
   0.7515561600000000    0.4606061200000000    0.0362505200000000 S
   0.4606050000000000    0.0362512600000000    0.7515556800000001 S
   0.0362510600000000    0.7515558900000000    0.4606053900000000 S
   0.1841743900000000    0.5460655800000001    0.4759609400000000 O
   0.4759612500000000    0.1841743600000000    0.5460651600000000 O
   0.5460676999999990    0.4759590900000000    0.1841740100000000 O
   0.8158256300000000    0.4539326700000000    0.5240406300000000 O
   0.5240389700000000    0.8158259800000001    0.4539338400000000 O
   0.4539351600000000    0.5240388900000000    0.8158253300000000 O
   0.1118863300000000    0.8953822300000001    0.2638230500000000 O
   0.2638228700000000    0.1118867100000000    0.8953819000000000 O
   0.8953819400000000    0.2638242500000000    0.1118845100000000 O
   0.8881151900000001    0.1046186300000000    0.7361748300000001 O
   0.2048624400000000    0.3792090700000000    0.9929650700000000 O
   0.3792098500000000    0.9929642300000000    0.2048627999999990 O
   0.9929624500000001    0.2048656999999990    0.3792117100000000 O
   0.7951348800000000    0.6207879300000000    0.0070369700000000 O
   0.6207904500000000    0.0070356700000000    0.7951368000000000 O
   0.0070357500000000    0.7951375700000001    0.6207899900000000 O
   0.2285341800000000    0.5194979000000000    0.1564639500000000 O
   0.5194980700000000    0.1564634400000000    0.2285332800000000 O
   0.1564614500000000    0.2285341000000000    0.5194986300000000 O
   0.7714666200000000    0.4805006600000000    0.8435383600000000 O
   0.4805020100000000    0.8435363100000001    0.7714659100000000 O
   0.8435363700000000    0.7714660700000000    0.4805022500000000 O
   0.1046172300000000    0.7361770900000000    0.8881137200000000 O
   0.7361769100000000    0.8881142300000000    0.1046177500000000 O
