pymatgen with grid density = 1257 / number of atoms
0
Monkhorst
2 2 2
