Na12 Al4 P32 O92
1.0
  12.0910069999999994    0.0000000000000000    0.0000000000000000
   0.0000000000000000   12.0910069999999994    0.0000000000000000
   0.0000000000000000    0.0000000000000000   12.0910069999999994
Na Al P O
12 4 32 92
direct
   0.3750000000000000    0.9560759999999990    0.7939240000000000 Na
   0.2939239999999990    0.1250000000000000    0.0439240000000000 Na
   0.4560760000000000    0.7060759999999990    0.6250000000000000 Na
   0.5439240000000000    0.2060759999999990    0.8750000000000000 Na
   0.8750000000000000    0.5439240000000000    0.2060759999999990 Na
   0.1250000000000000    0.0439240000000000    0.2939239999999990 Na
   0.6250000000000000    0.4560760000000000    0.7060759999999990 Na
   0.9560759999999990    0.7939240000000000    0.3750000000000000 Na
   0.0439240000000000    0.2939239999999990    0.1250000000000000 Na
   0.7060759999999990    0.6250000000000000    0.4560760000000000 Na
   0.7939240000000000    0.3750000000000000    0.9560759999999990 Na
   0.2060759999999990    0.8750000000000000    0.5439240000000000 Na
   0.1250000000000000    0.6250000000000000    0.8750000000000000 Al
   0.3750000000000000    0.3750000000000000    0.3750000000000000 Al
   0.8750000000000000    0.1250000000000000    0.6250000000000000 Al
   0.6250000000000000    0.8750000000000000    0.1250000000000000 Al
   0.6353740000000000    0.3544920000000000    0.4308440000000000 P
   0.6455080000000000    0.9308440000000000    0.8646260000000000 P
   0.4308440000000000    0.6353740000000000    0.3544920000000000 P
   0.9308440000000000    0.8646260000000000    0.6455080000000000 P
   0.8544919999999990    0.0691560000000000    0.3646260000000000 P
   0.0691560000000000    0.3646260000000000    0.8544919999999990 P
   0.3544920000000000    0.4308440000000000    0.6353740000000000 P
   0.1455080000000000    0.5691560000000000    0.1353740000000000 P
   0.5691560000000000    0.1353740000000000    0.1455080000000000 P
   0.3955079999999990    0.1146259999999990    0.3191560000000000 P
   0.1044920000000000    0.8853740000000000    0.8191560000000000 P
   0.6808440000000000    0.8955080000000000    0.3853740000000000 P
   0.3191560000000000    0.3955079999999990    0.1146259999999990 P
   0.8853740000000000    0.8191560000000000    0.1044920000000000 P
   0.3853740000000000    0.6808440000000000    0.8955080000000000 P
   0.1353740000000000    0.1455080000000000    0.5691560000000000 P
   0.8646260000000000    0.6455080000000000    0.9308440000000000 P
   0.3646260000000000    0.8544919999999990    0.0691560000000000 P
   0.8955080000000000    0.3853740000000000    0.6808440000000000 P
   0.6044919999999990    0.6146260000000000    0.1808440000000000 P
   0.8191560000000000    0.1044920000000000    0.8853740000000000 P
   0.1808440000000000    0.6044919999999990    0.6146260000000000 P
   0.1146259999999990    0.3191560000000000    0.3955079999999990 P
   0.6146260000000000    0.1808440000000000    0.6044919999999990 P
   0.0177490000000000    0.0177490000000000    0.0177490000000000 P
   0.2677490000000000    0.2322509999999990    0.7677490000000000 P
   0.7677490000000000    0.2677490000000000    0.2322509999999990 P
   0.2322509999999990    0.7677490000000000    0.2677490000000000 P
   0.4822510000000000    0.9822510000000000    0.5177490000000000 P
   0.5177490000000000    0.4822510000000000    0.9822510000000000 P
   0.9822510000000000    0.5177490000000000    0.4822510000000000 P
   0.7322510000000000    0.7322510000000000    0.7322510000000000 P
   0.6614669999999990    0.6614669999999990    0.6614669999999990 O
   0.9114669999999990    0.5885330000000000    0.4114669999999990 O
   0.5885330000000000    0.4114669999999990    0.9114669999999990 O
   0.4114669999999990    0.9114669999999990    0.5885330000000000 O
   0.1614670000000000    0.8385330000000000    0.3385330000000000 O
   0.8385330000000000    0.3385330000000000    0.1614670000000000 O
   0.3385330000000000    0.1614670000000000    0.8385330000000000 O
   0.0885330000000000    0.0885330000000000    0.0885330000000000 O
   0.4373880000000000    0.5110780000000000    0.6774880000000000 O
   0.9373880000000000    0.9889220000000000    0.3225119999999990 O
   0.5110780000000000    0.6774880000000000    0.4373880000000000 O
   0.4889219999999990    0.1774879999999990    0.0626120000000000 O
   0.6774880000000000    0.4373880000000000    0.5110780000000000 O
   0.8225119999999990    0.5626120000000000    0.0110780000000000 O
   0.1873880000000000    0.9274880000000000    0.7389220000000000 O
   0.6873880000000000    0.5725120000000000    0.2610780000000000 O
   0.8126120000000000    0.4274880000000000    0.7610779999999990 O
   0.5725120000000000    0.2610780000000000    0.6873880000000000 O
   0.7610779999999990    0.8126120000000000    0.4274880000000000 O
   0.2610780000000000    0.6873880000000000    0.5725120000000000 O
   0.9274880000000000    0.7389220000000000    0.1873880000000000 O
   0.7389220000000000    0.1873880000000000    0.9274880000000000 O
   0.4274880000000000    0.7610779999999990    0.8126120000000000 O
   0.0725120000000000    0.2389220000000000    0.3126120000000000 O
   0.2389220000000000    0.3126120000000000    0.0725120000000000 O
   0.3225119999999990    0.9373880000000000    0.9889220000000000 O
   0.1774879999999990    0.0626120000000000    0.4889219999999990 O
   0.0110780000000000    0.8225119999999990    0.5626120000000000 O
   0.9889220000000000    0.3225119999999990    0.9373880000000000 O
   0.0626120000000000    0.4889219999999990    0.1774879999999990 O
   0.5626120000000000    0.0110780000000000    0.8225119999999990 O
   0.3126120000000000    0.0725120000000000    0.2389220000000000 O
   0.3750000000000000    0.7324200000000001    0.0175800000000000 O
   0.5175800000000000    0.1250000000000000    0.2675800000000000 O
   0.7343430000000000    0.3297810000000000    0.3418839999999990 O
   0.2324200000000000    0.4824200000000000    0.6250000000000000 O
   0.9824200000000001    0.8750000000000000    0.7675800000000000 O
   0.0175800000000000    0.3750000000000000    0.7324200000000001 O
   0.4824200000000000    0.6250000000000000    0.2324200000000000 O
   0.2675800000000000    0.5175800000000000    0.1250000000000000 O
   0.7324200000000001    0.0175800000000000    0.3750000000000000 O
   0.6250000000000000    0.2324200000000000    0.4824200000000000 O
   0.1250000000000000    0.2675800000000000    0.5175800000000000 O
   0.8750000000000000    0.7675800000000000    0.9824200000000001 O
   0.3297810000000000    0.3418839999999990    0.7343430000000000 O
   0.8297810000000000    0.1581160000000000    0.2656570000000000 O
   0.3418839999999990    0.7343430000000000    0.3297810000000000 O
   0.6581159999999990    0.2343430000000000    0.1702189999999990 O
   0.0318590000000000    0.1224600000000000    0.6334550000000000 O
   0.2818589999999990    0.6165450000000000    0.8724600000000001 O
   0.7818590000000000    0.8834550000000000    0.1275400000000000 O
   0.3834550000000000    0.3724600000000000    0.2181410000000000 O
   0.6165450000000000    0.8724600000000001    0.2818589999999990 O
   0.1275400000000000    0.7818590000000000    0.8834550000000000 O
   0.3724600000000000    0.2181410000000000    0.3834550000000000 O
   0.6334550000000000    0.0318590000000000    0.1224600000000000 O
   0.1224600000000000    0.6334550000000000    0.0318590000000000 O
   0.3775400000000000    0.3665450000000000    0.5318590000000000 O
   0.1334550000000000    0.4681410000000000    0.8775400000000001 O
   0.8775400000000001    0.1334550000000000    0.4681410000000000 O
   0.8665450000000000    0.9681409999999990    0.6224600000000000 O
   0.3665450000000000    0.5318590000000000    0.3775400000000000 O
   0.6224600000000000    0.8665450000000000    0.9681409999999990 O
   0.5318590000000000    0.3775400000000000    0.3665450000000000 O
   0.9681409999999990    0.6224600000000000    0.8665450000000000 O
   0.4681410000000000    0.8775400000000001    0.1334550000000000 O
   0.8724600000000001    0.2818589999999990    0.6165450000000000 O
   0.6275400000000001    0.7181409999999990    0.1165450000000000 O
   0.8834550000000000    0.1275400000000000    0.7818590000000000 O
   0.1165450000000000    0.6275400000000001    0.7181409999999990 O
   0.2181410000000000    0.3834550000000000    0.3724600000000000 O
   0.7181409999999990    0.1165450000000000    0.6275400000000001 O
   0.4202189999999990    0.0156570000000000    0.4081160000000000 O
   0.6702190000000000    0.8418840000000000    0.7656569999999990 O
   0.1702189999999990    0.6581159999999990    0.2343430000000000 O
   0.1581160000000000    0.2656570000000000    0.8297810000000000 O
   0.8418840000000000    0.7656569999999990    0.6702190000000000 O
   0.2343430000000000    0.1702189999999990    0.6581159999999990 O
   0.2656570000000000    0.8297810000000000    0.1581160000000000 O
   0.4081160000000000    0.4202189999999990    0.0156570000000000 O
   0.0156570000000000    0.4081160000000000    0.4202189999999990 O
   0.4843429999999990    0.5918840000000000    0.9202190000000000 O
   0.9081159999999990    0.0797809999999990    0.9843430000000000 O
   0.9843430000000000    0.9081159999999990    0.0797809999999990 O
   0.0918840000000000    0.5797810000000000    0.5156570000000000 O
   0.5918840000000000    0.9202190000000000    0.4843429999999990 O
   0.5156570000000000    0.0918840000000000    0.5797810000000000 O
   0.9202190000000000    0.4843429999999990    0.5918840000000000 O
   0.5797810000000000    0.5156570000000000    0.0918840000000000 O
   0.0797809999999990    0.9843430000000000    0.9081159999999990 O
   0.7656569999999990    0.6702190000000000    0.8418840000000000 O
   0.7675800000000000    0.9824200000000001    0.8750000000000000 O
