Al4 O6
1.0
   1.4704750000000000    5.9628740000000002    0.0000000000000000
  -1.4704750000000000    5.9628740000000002    0.0000000000000000
   0.0000000000000000    1.3746540000000000    5.5013699999999996
Al O
4 6
direct
   0.9098790000000000    0.9098790000000000    0.7956110000000000 Al
   0.0901209999999990    0.0901209999999990    0.2043890000000000 Al
   0.6578500000000000    0.6578500000000000    0.6832229999999990 Al
   0.3421500000000000    0.3421500000000000    0.3167770000000000 Al
   0.8397939999999990    0.8397939999999990    0.1089530000000000 O
   0.1602060000000000    0.1602060000000000    0.8910469999999990 O
   0.5049790000000000    0.5049790000000000    0.2574420000000000 O
   0.4950210000000000    0.4950210000000000    0.7425579999999991 O
   0.1736049999999990    0.1736049999999990    0.4325880000000000 O
   0.8263950000000000    0.8263950000000000    0.5674120000000000 O
