Al2 H24 Cl6 O12
1.0
   5.2436471500000001   -5.8756806399999997   -0.0030044700000000
   5.2436471500000001    5.8756806399999997   -0.0030044700000000
  -1.3357987300000000   -0.0000000000000000    7.7611278400000003
Al H Cl O
2 24 6 12
direct
   0.5000000000000000    0.5000000000000000    0.5000000000000000 Al
  -0.0000000000000000   -0.0000000000000000   -0.0000000000000000 Al
   0.8873317700000000    0.2907139800000000    0.0851901400000000 H
   0.0851901400000000    0.8873317700000000    0.2907139800000000 H
   0.2907139800000000    0.0851901400000000    0.8873317700000000 H
   0.6126682300000000    0.4148098600000000    0.2092860200000000 H
   0.2092860200000000    0.6126682300000000    0.4148098600000000 H
   0.4148098600000000    0.2092860200000000    0.6126682300000000 H
   0.1126682300000000    0.7092860200000000    0.9148098600000000 H
   0.9148098600000000    0.1126682300000000    0.7092860200000000 H
   0.7092860200000000    0.9148098600000000    0.1126682300000000 H
   0.3873317700000000    0.5851901400000000    0.7907139800000000 H
   0.7907139800000000    0.3873317700000000    0.5851901400000000 H
   0.5851901400000000    0.7907139800000000    0.3873317700000000 H
   0.9581733200000000    0.2135981700000000    0.2577553800000000 H
   0.2577553800000000    0.9581733200000000    0.2135981700000000 H
   0.2135981700000000    0.2577553800000000    0.9581733200000000 H
   0.5418266800000000    0.2422446200000000    0.2864018300000000 H
   0.2864018300000000    0.5418266800000000    0.2422446200000000 H
   0.2422446200000000    0.2864018300000000    0.5418266800000000 H
   0.0418266800000000    0.7864018300000000    0.7422446200000000 H
   0.7422446200000000    0.0418266800000000    0.7864018300000000 H
   0.7577553800000000    0.7135981700000000    0.4581733200000000 H
   0.7135981700000000    0.4581733200000000    0.7577553800000000 H
   0.4581733200000000    0.7577553800000000    0.7135981700000000 H
   0.7864018300000000    0.7422446200000000    0.0418266800000000 H
   0.5175652400000000    0.9824347600000001    0.2500000000000000 Cl
   0.7500000000000000    0.4824347600000000    0.0175652400000000 Cl
   0.0175652400000000    0.7500000000000000    0.4824347600000000 Cl
   0.4824347600000000    0.0175652400000000    0.7500000000000000 Cl
   0.9824347600000001    0.2500000000000000    0.5175652400000000 Cl
   0.2500000000000000    0.5175652400000000    0.9824347600000001 Cl
   0.9442244999999990    0.1962548700000000    0.1300847100000000 O
   0.1300847100000000    0.9442244999999990    0.1962548700000000 O
   0.1962548700000000    0.1300847100000000    0.9442244999999990 O
   0.5557755000000000    0.3699152900000000    0.3037451300000000 O
   0.3037451300000000    0.5557755000000000    0.3699152900000000 O
   0.3699152900000000    0.3037451300000000    0.5557755000000000 O
   0.0557755000000000    0.8037451300000000    0.8699152900000000 O
   0.8699152900000000    0.0557755000000000    0.8037451300000000 O
   0.8037451300000000    0.8699152900000000    0.0557755000000000 O
   0.4442244999999990    0.6300847100000000    0.6962548700000000 O
   0.6962548700000000    0.4442244999999990    0.6300847100000000 O
   0.6300847100000000    0.6962548700000000    0.4442244999999990 O
