pymatgen with grid density = 1833 / number of atoms
0
Gamma
5 4 1
