Al16 O24
1.0
   4.8275730000000001    0.0000000000000000    0.0000000000000000
   0.0000000000000000    5.0903630000000000    0.0000000000000000
   0.0000000000000000    0.0000000000000000   14.0952210000000004
Al O
16 24
direct
   0.9997400000000001    0.1850490000000000    0.0728530000000000 Al
   0.9979589999999990    0.7470359999999990    0.1786370000000000 Al
   0.9997400000000001    0.3149510000000000    0.5728529999999999 Al
   0.9979589999999990    0.7529640000000000    0.6786369999999990 Al
   0.5020410000000000    0.2470359999999990    0.1786370000000000 Al
   0.5020410000000000    0.2529639999999990    0.6786369999999990 Al
   0.5002600000000000    0.6850490000000000    0.0728530000000000 Al
   0.5002600000000000    0.8149510000000000    0.5728529999999999 Al
   0.4997400000000000    0.1850490000000000    0.4271470000000000 Al
   0.4997400000000000    0.3149510000000000    0.9271469999999991 Al
   0.4979590000000000    0.7470359999999990    0.3213630000000000 Al
   0.4979590000000000    0.7529640000000000    0.8213630000000000 Al
   0.0002600000000000    0.6850490000000000    0.4271470000000000 Al
   0.0020410000000000    0.2470359999999990    0.3213630000000000 Al
   0.0020410000000000    0.2529639999999990    0.8213630000000000 Al
   0.0002600000000000    0.8149510000000000    0.9271469999999991 Al
   0.1430100000000000    0.1186600000000000    0.2032870000000000 O
   0.1430100000000000    0.3813400000000000    0.7032870000000000 O
   0.1537919999999990    0.8365100000000001    0.0498400000000000 O
   0.1537919999999990    0.6634900000000000    0.5498400000000000 O
   0.1980029999999990    0.9632910000000000    0.3766100000000001 O
   0.1980029999999990    0.5367090000000000    0.8766100000000001 O
   0.3019969999999990    0.4632909999999990    0.3766100000000001 O
   0.3019969999999990    0.0367090000000000    0.8766100000000001 O
   0.3462079999999990    0.1634900000000000    0.5498400000000000 O
   0.3462079999999990    0.3365100000000000    0.0498400000000000 O
   0.3569900000000000    0.6186600000000001    0.2032870000000000 O
   0.3569900000000000    0.8813400000000001    0.7032870000000000 O
   0.6430100000000001    0.1186600000000000    0.2967130000000000 O
   0.6430100000000001    0.3813400000000000    0.7967130000000000 O
   0.6537919999999990    0.8365100000000001    0.4501600000000001 O
   0.6537919999999990    0.6634900000000000    0.9501600000000001 O
   0.6980029999999990    0.5367090000000000    0.6233900000000000 O
   0.6980029999999990    0.9632910000000000    0.1233900000000000 O
   0.8019970000000000    0.4632909999999990    0.1233900000000000 O
   0.8019970000000000    0.0367090000000000    0.6233900000000000 O
   0.8462080000000000    0.3365100000000000    0.4501600000000001 O
   0.8462080000000000    0.1634900000000000    0.9501600000000001 O
   0.8569900000000000    0.8813400000000001    0.7967130000000000 O
   0.8569900000000000    0.6186600000000001    0.2967130000000000 O
