ALGO = Fast
EDIFF = 0.0034000000000000002
ENCUT = 520.0
IBRION = 2
ISIF = 3
ISMEAR = -5
ISPIN = 2
LASPH = True
LDAU = True
LDAUJ = 0 0 0
LDAUL = 0 2 0
LDAUPRINT = 1
LDAUTYPE = 2
LDAUU = 0 4.38 0
LMAXMIX = 4
LORBIT = 11
LREAL = Auto
LWAVE = False
MAGMOM = 68*0.0
NELM = 100
NSW = 99
PREC = Accurate
SIGMA = 0.05
