Al8 Mo12 O48
1.0
   9.0212451500000004   -0.0000000000000000    0.0000000000000000
  -0.0000000000000000    9.1026723599999997    0.0000000000000000
   0.0000000000000000    0.0000000000000000   12.4970401700000000
Al Mo O
8 12 48
direct
   0.2500167000000000    0.4643678300000000    0.3800989900000000 Al
   0.2500167000000000    0.0356321700000000    0.6199020100000000 Al
   0.2499833000000000    0.9643678300000000    0.1199020100000000 Al
   0.2499833000000000    0.5356321700000000    0.8800979900000000 Al
   0.7499833000000000    0.5356321700000000    0.6199020100000000 Al
   0.7499833000000000    0.9643678300000000    0.3800989900000000 Al
   0.7500167000000000    0.0356321700000000    0.8800979900000000 Al
   0.7500167000000000    0.4643678300000000    0.1199020100000000 Al
   0.0246673700000000    0.7500000000000000    0.5000000000000000 Mo
   0.5246663700000000    0.7500000000000000    0.0000000000000000 Mo
   0.9753336300000001    0.2500000000000000    0.5000000000000000 Mo
   0.4753326300000000    0.2500000000000000    0.0000000000000000 Mo
   0.3979819700000000    0.1197901800000000    0.3549164300000000 Mo
   0.3979819700000000    0.3802098200000000    0.6450825700000000 Mo
   0.1020180300000000    0.6197901800000000    0.1450825700000000 Mo
   0.1020180300000000    0.8802098200000000    0.8549174300000000 Mo
   0.6020180300000000    0.8802098200000000    0.6450825700000000 Mo
   0.6020180300000000    0.6197901800000000    0.3549164300000000 Mo
   0.8979819700000000    0.3802098200000000    0.8549174300000000 Mo
   0.8979819700000000    0.1197901800000000    0.1450825700000000 Mo
   0.8630949500000000    0.3063274700000000    0.1723932700000000 O
   0.8630949500000000    0.1936725300000000    0.8276067300000001 O
   0.6369050500000000    0.8063274700000000    0.3276077300000000 O
   0.6369050500000000    0.6936725300000001    0.6723932700000000 O
   0.1369050500000000    0.6936725300000001    0.8276067300000001 O
   0.1369050500000000    0.8063274700000000    0.1723932700000000 O
   0.3630949500000000    0.1936725300000000    0.6723932700000000 O
   0.3630949500000000    0.3063274700000000    0.3276077300000000 O
   0.8207788400000000    0.0759458400000000    0.0201912900000000 O
   0.8207788400000000    0.4240541600000000    0.9798087100000000 O
   0.6792211600000000    0.5759448400000000    0.4798087100000000 O
   0.6792211600000000    0.9240541600000001    0.5201912900000000 O
   0.1792211600000000    0.9240541600000001    0.9798087100000000 O
   0.1792211600000000    0.5759448400000000    0.0201912900000000 O
   0.3207788400000000    0.4240541600000000    0.5201912900000000 O
   0.3207788400000000    0.0759458400000000    0.4798087100000000 O
   0.4105239300000000    0.6656939100000000    0.9037989000000000 O
   0.5894760700000000    0.1656939100000000    0.9037989000000000 O
   0.9105239300000000    0.8343060900000000    0.4037999000000000 O
   0.9105239300000000    0.6656939100000000    0.5962010999999990 O
   0.0908191200000000    0.0929193600000000    0.1408421200000000 O
   0.0908191200000000    0.4070806400000000    0.8591578800000000 O
   0.4091808800000000    0.5929193600000000    0.3591578800000000 O
   0.4091808800000000    0.9070796400000000    0.6408421200000000 O
   0.9091818800000000    0.9070796400000000    0.8591578800000000 O
   0.9091818800000000    0.5929193600000000    0.1408421200000000 O
   0.5908191200000000    0.4070806400000000    0.6408421200000000 O
   0.5908191200000000    0.0929193600000000    0.3591578800000000 O
   0.3644743600000000    0.1180310000000000    0.0636147400000000 O
   0.3644743600000000    0.3819690000000000    0.9363862600000000 O
   0.1355246400000000    0.6180310000000000    0.4363852600000000 O
   0.1355246400000000    0.8819690000000000    0.5636137400000000 O
   0.6355246400000000    0.8819690000000000    0.9363862600000000 O
   0.6355246400000000    0.6180310000000000    0.0636147400000000 O
   0.8644743600000000    0.3819690000000000    0.5636137400000000 O
   0.8644743600000000    0.1180310000000000    0.4363852600000000 O
   0.3195325800000000    0.0063143700000000    0.2565602100000000 O
   0.3195325800000000    0.4936856300000000    0.7434397900000000 O
   0.1804674200000000    0.5063143700000000    0.2434397900000000 O
   0.1804674200000000    0.9936856300000000    0.7565602100000001 O
   0.6804674200000000    0.9936856300000000    0.7434397900000000 O
   0.6804674200000000    0.5063143700000000    0.2565602100000000 O
   0.8195335800000000    0.4936856300000000    0.7565602100000001 O
   0.8195335800000000    0.0063143700000000    0.2434397900000000 O
   0.0894760700000000    0.3343060900000000    0.4037999000000000 O
   0.0894760700000000    0.1656939100000000    0.5962010999999990 O
   0.4105239300000000    0.8343060900000000    0.0962011000000000 O
   0.5894760700000000    0.3343060900000000    0.0962011000000000 O
