Al2 Cl2 O2                              
   1.00000000000000     
     3.6595006762810214    0.0000000000000000    0.0000000000000000
     0.0000000000000000    3.1702469026906397    0.0000000000000000
     0.0000000000000000    0.0000000000000000    7.9997466319212194
  Al              Cl              O             
     2     2     2
Direct
  0.7500000000000000  0.2500000000000000  0.8958205478573226
  0.2500000000000000  0.7500000000000000  0.1041794521426774
  0.7500000000000000  0.7500000000000000  0.6847837388031341
  0.2500000000000000  0.2500000000000000  0.3152162611968659
  0.2500000000000000  0.2500000000000000  0.9509644577107241
  0.7500000000000000  0.7500000000000000  0.0490355422892758
 
  0.00000000E+00  0.00000000E+00  0.00000000E+00
  0.00000000E+00  0.00000000E+00  0.00000000E+00
  0.00000000E+00  0.00000000E+00  0.00000000E+00
  0.00000000E+00  0.00000000E+00  0.00000000E+00
  0.00000000E+00  0.00000000E+00  0.00000000E+00
  0.00000000E+00  0.00000000E+00  0.00000000E+00
