pymatgen with grid density = 1057 / number of atoms
0
Gamma
6 8 3
