pymatgen with grid density = 594 / number of atoms
0
Gamma
4 4 3
