Cr2 Cl6
1.0
   1.3108160000000000    3.0229260000000000   -5.0691230000000003
   1.3108160000000000   -3.0229260000000000   -5.0691230000000003
  -5.6604749999999999    0.0000000000000000   -5.0691230000000003
Cr Cl
2 6
direct
   0.6666829999999990    0.6666829999999990    0.9999509999999990 Cr
   0.3333170000000000    0.3333170000000000    0.0000490000000000 Cr
   0.5773509999999999    0.9342389999999990    0.1973329999999990 Cl
   0.7089230000000000    0.4226490000000000    0.8026669999999990 Cl
   0.2910770000000000    0.5773509999999999    0.1973329999999990 Cl
   0.0657610000000000    0.7089230000000000    0.8026669999999990 Cl
   0.4226490000000000    0.0657610000000000    0.8026669999999990 Cl
   0.9342389999999990    0.2910770000000000    0.1973329999999990 Cl
