Al16 Fe8 O32 -- Bulk
1.0
   8.3872179619999994   -4.7445119460000003    2.9054114620000000
   6.7097841000000003    4.7445345999999997    0.0000020400000000
   5.0323326579999996    0.0000103140000000    8.7162406170000004
Al Fe O
16 8 32
direct
   0.7499993320000000    0.2500006680000000    0.7500020040000001 Al3+
   0.9999993320000000    0.5000006680000000    0.0000020040000000 Al3+
   0.2499993320000000    0.7500006680000000    0.2500020040000000 Al3+
   0.4999993320000000    0.0000006680000000    0.5000020040000001 Al3+
   0.6250006680000000    0.1250020040000000    0.1249979970000000 Al3+
   0.8750006680000000    0.3750020040000000    0.3749979970000000 Al3+
   0.1250006680000000    0.6250020040000001    0.6249979970000000 Al3+
   0.3750006680000000    0.8750020040000001    0.8749979970000000 Al3+
   0.5000020030000000    0.4999979970000000    0.9999993320000000 Al3+
   0.7500020030000000    0.7499979970000000    0.2499993320000000 Al3+
   0.0000020030000000    0.9999979970000000    0.4999993320000000 Al3+
   0.2500020030000000    0.2499979970000000    0.7499993330000000 Al3+
   0.8749979959999999    0.3749993320000000    0.8750006680000000 Al3+
   0.1249979960000000    0.6249993320000000    0.1250006680000000 Al3+
   0.3749979960000000    0.8749993320000000    0.3750006680000000 Al3+
   0.6249979959999999    0.1249993320000000    0.6250006680000000 Al3+
   0.5625000000000000    0.4375000000000000    0.3125000000000000 Fe2+
   0.8125000000000000    0.6875000000000000    0.5625000000000000 Fe2+
   0.0625000000000000    0.9375000000000000    0.8125000000000000 Fe2+
   0.3125000000000000    0.1875000000000000    0.0625000000000000 Fe2+
   0.9375000000000000    0.0625000000000000    0.1875000000000000 Fe2+
   0.1875000000000000    0.3125000000000000    0.4375000000000000 Fe2+
   0.4375000000000000    0.5625000000000000    0.6875000000000000 Fe2+
   0.6875000000000000    0.8125000000000000    0.9375000000000000 Fe2+
   0.6327277930000000    0.3672727070000000    0.1018186200000000 O2-
   0.8827277930000000    0.6172727070000000    0.3518186200000000 O2-
   0.1327277930000000    0.8672727070000000    0.6018186200000000 O2-
   0.3827277930000000    0.1172727070000000    0.8518186200000000 O2-
   0.7577267750000000    0.0231823200000000    0.7268186740000000 O2-
   0.0077267750000000    0.2731823200000000    0.9768186740000000 O2-
   0.2577267750000000    0.5231823200000000    0.2268186740000000 O2-
   0.5077267750000000    0.7731823200000000    0.4768186740000000 O2-
   0.6481813230000000    0.3518176770000000    0.6172732220000000 O2-
   0.8981813230000000    0.6018176770000000    0.8672732220000000 O2-
   0.1481813230000000    0.8518176770000000    0.1172732220000000 O2-
   0.3981813230000000    0.1018176770000000    0.3672732230000000 O2-
   0.9768186800000001    0.2422722250000000    0.5077267700000000 O2-
   0.2268186800000000    0.4922722250000000    0.7577267700000000 O2-
   0.4768186800000000    0.7422722250000000    0.0077267700000000 O2-
   0.7268186800000001    0.9922722250000000    0.2577267700000000 O2-
   0.8518181250000000    0.1481813750000000    0.8827282880000000 O2-
   0.1018181250000000    0.3981813750000000    0.1327282880000000 O2-
   0.3518181250000000    0.6481813749999999    0.3827282880000000 O2-
   0.6018181250000000    0.8981813749999999    0.6327282880000000 O2-
   0.5231816280000000    0.2577275400000000    0.9922724540000000 O2-
   0.7731816280000000    0.5077275400000000    0.2422724540000000 O2-
   0.0231816280000000    0.7577275400000000    0.4922724540000000 O2-
   0.2731816280000000    0.0077275400000000    0.7422724540000000 O2-
   0.8672732270000000    0.1327277730000000    0.3981813200000000 O2-
   0.1172732270000000    0.3827277730000000    0.6481813199999999 O2-
   0.3672732270000000    0.6327277730000000    0.8981813199999999 O2-
   0.6172732270000000    0.8827277730000000    0.1481813200000000 O2-
   0.7422722100000000    0.4768191220000000    0.7731813720000000 O2-
   0.9922722100000000    0.7268191220000000    0.0231813720000000 O2-
   0.2422722100000000    0.9768191220000000    0.2731813720000000 O2-
   0.4922722100000000    0.2268191220000000    0.5231813720000000 O2-
