Cs6 Al3 N15 O45
1.0
   5.6488889999999996   -9.7841620000000002    0.0000000000000000
   5.6488889999999996    9.7841620000000002    0.0000000000000000
   0.0000000000000000    0.0000000000000000   10.1758030000000002
Cs Al N O
6 3 15 45
direct
   0.0000000000000000    0.7050060000000000    0.6666670000000000 Cs
   0.4579959999999990    0.4579959999999990    0.5000000000000000 Cs
   0.0000000000000000    0.5420039999999990    0.1666669999999990 Cs
   0.7050060000000000    0.0000000000000000    0.3333330000000000 Cs
   0.5420039999999990    0.0000000000000000    0.8333330000000000 Cs
   0.2949940000000000    0.2949940000000000    0.0000000000000000 Cs
   0.6860910000000000    0.6860910000000000    0.0000000000000000 Al
   0.3139090000000000    0.0000000000000000    0.3333330000000000 Al
   0.0000000000000000    0.3139090000000000    0.6666670000000000 Al
   0.7473790000000000    0.6546710000000000    0.2731560000000000 N
   0.2526210000000000    0.9072920000000000    0.0601779999999990 N
   0.7573200000000001    0.3163829999999990    0.5788130000000000 N
   0.9003040000000000    0.9003040000000000    0.0000000000000000 N
   0.3163829999999990    0.7573200000000001    0.4211870000000000 N
   0.0996959999999990    0.0000000000000000    0.3333330000000000 N
   0.2426800000000000    0.5590619999999999    0.7545210000000000 N
   0.3453290000000000    0.0927080000000000    0.6064889999999999 N
   0.4409380000000000    0.6836169999999990    0.0878540000000000 N
   0.0927080000000000    0.3453290000000000    0.3935110000000000 N
   0.6546710000000000    0.7473790000000000    0.7268439999999990 N
   0.6836169999999990    0.4409380000000000    0.9121460000000000 N
   0.0000000000000000    0.0996959999999990    0.6666670000000000 N
   0.9072920000000000    0.2526210000000000    0.9398219999999990 N
   0.5590619999999999    0.2426800000000000    0.2454790000000000 N
   0.1888370000000000    0.3772410000000000    0.3162330000000000 O
   0.1240140000000000    0.3620780000000000    0.5207680000000000 O
   0.4896279999999991    0.1078080000000000    0.2636989999999990 O
   0.0080920000000000    0.0080920000000000    0.0000000000000000 O
   0.2079720000000000    0.0884850000000000    0.2697790000000000 O
   0.6107490000000000    0.3158280000000000    0.9010790000000000 O
   0.0884850000000000    0.2079720000000000    0.7302210000000000 O
   0.3006109999999990    0.9719019999999990    0.6408389999999990 O
   0.3287090000000000    0.0280979999999990    0.0258280000000000 O
   0.3620780000000000    0.1240140000000000    0.4792320000000000 O
   0.3158280000000000    0.6107490000000000    0.0989210000000000 O
   0.8921920000000000    0.3818200000000000    0.5970320000000000 O
   0.6379220000000000    0.7619359999999999    0.8541010000000000 O
   0.6181800000000001    0.5103719999999990    0.9303659999999990 O
   0.8115970000000000    0.6227590000000000    0.3504339999999990 O
   0.3772410000000000    0.1888370000000000    0.6837670000000000 O
   0.3818200000000000    0.8921920000000000    0.4029680000000000 O
   0.1078080000000000    0.4896279999999991    0.7363010000000000 O
   0.9719019999999990    0.3006109999999990    0.3591610000000000 O
   0.1194870000000000    0.9115150000000000    0.3968879999999990 O
   0.7619359999999999    0.6379220000000000    0.1458990000000000 O
   0.8107019999999990    0.5047389999999990    0.9061410000000000 O
   0.6940370000000000    0.1892980000000000    0.5728080000000000 O
   0.1892980000000000    0.6940370000000000    0.4271919999999990 O
   0.6993889999999990    0.6712910000000000    0.6924939999999991 O
   0.8805130000000000    0.7920280000000000    0.9364450000000000 O
   0.2380640000000000    0.8759859999999990    0.1874350000000000 O
   0.2949219999999990    0.6841720000000000    0.7655879999999990 O
   0.6712910000000000    0.6993889999999990    0.3075060000000000 O
   0.7050780000000000    0.3892509999999990    0.5677449999999991 O
   0.5103719999999990    0.6181800000000001    0.0696340000000000 O
   0.6227590000000000    0.8115970000000000    0.6495660000000000 O
   0.8111630000000000    0.1884030000000000    0.0171000000000000 O
   0.0000000000000000    0.9919079999999991    0.6666670000000000 O
   0.3892509999999990    0.7050780000000000    0.4322550000000000 O
   0.5047389999999990    0.8107019999999990    0.0938590000000000 O
   0.8759859999999990    0.2380640000000000    0.8125650000000000 O
   0.3059630000000000    0.4952609999999991    0.7605250000000000 O
   0.7920280000000000    0.8805130000000000    0.0635550000000000 O
   0.1884030000000000    0.8111630000000000    0.9829000000000000 O
   0.9115150000000000    0.1194870000000000    0.6031120000000000 O
   0.4952609999999991    0.3059630000000000    0.2394750000000000 O
   0.6841720000000000    0.2949219999999990    0.2344119999999990 O
   0.9919079999999991    0.0000000000000000    0.3333330000000000 O
   0.0280979999999990    0.3287090000000000    0.9741719999999990 O
