pymatgen with grid density = 607 / number of atoms
0
Gamma
4 4 1
