Cr6 Cl18
1.0
   3.0351149999999998   -5.2569730000000003    0.0000000000000000
   3.0351149999999998    5.2569730000000003    0.0000000000000000
   0.0000000000000000    0.0000000000000000   19.6823709999999998
Cr Cl
6 18
direct
   0.2222800000000000    0.7777200000000001    0.6666670000000000 Cr
   0.8889020000000000    0.1110979999999990    0.6666670000000000 Cr
   0.2222800000000000    0.4445600000000000    0.3333330000000000 Cr
   0.8889020000000000    0.7778039999999991    0.3333330000000000 Cr
   0.2221959999999990    0.1110979999999990    0.0000000000000000 Cr
   0.5554400000000000    0.7777200000000001    0.0000000000000000 Cr
   0.2495210000000000    0.4443390000000000    0.9319949999999990 Cl
   0.1949420000000000    0.0836070000000000    0.5987140000000000 Cl
   0.2495210000000000    0.8051820000000000    0.0680050000000000 Cl
   0.5556610000000000    0.4720200000000001    0.2653379999999990 Cl
   0.5556610000000000    0.0836410000000000    0.7346619999999990 Cl
   0.1948180000000000    0.4443390000000000    0.7346720000000000 Cl
   0.5556610000000000    0.7504790000000000    0.4013380000000000 Cl
   0.9163930000000000    0.1113349999999990    0.2653800000000000 Cl
   0.9163930000000000    0.8050579999999991    0.7346200000000001 Cl
   0.5279800000000000    0.0836410000000000    0.9320039999999991 Cl
   0.1949420000000000    0.1113349999999990    0.4012860000000000 Cl
   0.5279800000000000    0.4443390000000000    0.0679960000000000 Cl
   0.8886649999999990    0.0836070000000000    0.0679530000000000 Cl
   0.9163589999999990    0.4720200000000001    0.4013290000000000 Cl
   0.9163589999999990    0.4443390000000000    0.5986710000000000 Cl
   0.5556610000000000    0.8051820000000000    0.5986620000000000 Cl
   0.1948180000000000    0.7504790000000000    0.2653280000000000 Cl
   0.8886649999999990    0.8050579999999991    0.9320470000000000 Cl
