ALGO = Fast
EDIFF = 0.0001
ENCUT = 520.0
IBRION = 2
ISIF = 3
ISMEAR = 1
ISPIN = 2
LASPH = True
LORBIT = 11
LREAL = Auto
LWAVE = False
MAGMOM = 2*0.6
NELM = 100
NSW = 99
PREC = Accurate
SIGMA = 0.2
