pymatgen with grid density = 2976 / number of atoms
0
Gamma
13 13 7
