Al20 Cl20 O20 -- Bulk                   
   1.00000000000000     
     3.6595006760000000    6.3404938059999996   -7.9997466319999999
    -3.6595006760000000    9.5107407100000003    0.0000000000000000
     3.6595006760000000    6.3404938059999996    7.9997466319999999
  Al              Cl              O             
    20    20    20
Direct
  0.8020897259999984  0.7500000000000000  0.6979102740000016
  0.9020897259999998  0.9500000000000028  0.7979102740000030
  0.0020897260000012  0.1499999999999986  0.8979102739999973
  0.1020897260000027  0.3500000000000014  0.9979102739999988
  0.2020897259999970  0.5499999999999972  0.0979102740000002
  0.3020897259999984  0.7500000000000000  0.1979102740000016
  0.4020897259999998  0.9500000000000028  0.2979102740000030
  0.5020897260000012  0.1499999999999986  0.3979102739999973
  0.6020897260000027  0.3500000000000014  0.4979102739999988
  0.7020897259999970  0.5499999999999972  0.5979102740000002
  0.0979102740000002  0.0499999999999972  0.2020897259999970
  0.1979102740000016  0.2500000000000000  0.3020897259999984
  0.2979102740000030  0.4500000000000028  0.4020897259999998
  0.3979102739999973  0.6499999999999986  0.5020897260000012
  0.4979102739999988  0.8500000000000014  0.6020897260000027
  0.5979102740000002  0.0499999999999972  0.7020897259999970
  0.6979102740000016  0.2500000000000000  0.8020897259999984
  0.7979102740000030  0.4500000000000028  0.9020897259999998
  0.8979102739999973  0.6499999999999986  0.0020897260000012
  0.9979102739999988  0.8500000000000014  0.1020897260000027
  0.9576081299999970  0.8500000000000014  0.6423918699999973
  0.0576081299999984  0.0499999999999972  0.7423918699999987
  0.1576081299999998  0.2500000000000000  0.8423918700000002
  0.2576081300000013  0.4500000000000028  0.9423918700000016
  0.3576081300000027  0.6499999999999986  0.0423918700000030
  0.4576081299999970  0.8500000000000014  0.1423918699999973
  0.5576081299999984  0.0499999999999972  0.2423918699999987
  0.6576081299999998  0.2500000000000000  0.3423918700000002
  0.7576081300000013  0.4500000000000028  0.4423918700000016
  0.8576081300000027  0.6499999999999986  0.5423918700000030
  0.9423918700000016  0.9500000000000028  0.2576081300000013
  0.0423918700000030  0.1499999999999986  0.3576081300000027
  0.1423918699999973  0.3500000000000014  0.4576081299999970
  0.2423918699999987  0.5499999999999972  0.5576081299999984
  0.3423918700000002  0.7500000000000000  0.6576081299999998
  0.4423918700000016  0.9500000000000028  0.7576081300000013
  0.5423918700000030  0.1499999999999986  0.8576081300000027
  0.6423918699999973  0.3500000000000014  0.9576081299999970
  0.7423918699999987  0.5499999999999972  0.0576081299999984
  0.8423918700000002  0.7500000000000000  0.1576081299999998
  0.6245177699999971  0.9500000000000028  0.5754822299999987
  0.7245177699999985  0.1499999999999986  0.6754822300000001
  0.8245177699999999  0.3500000000000014  0.7754822300000015
  0.9245177700000013  0.5499999999999972  0.8754822300000029
  0.0245177700000028  0.7500000000000000  0.9754822299999972
  0.1245177699999971  0.9500000000000028  0.0754822299999987
  0.2245177699999985  0.1499999999999986  0.1754822300000001
  0.3245177699999999  0.3500000000000014  0.2754822300000015
  0.4245177700000013  0.5499999999999972  0.3754822300000029
  0.5245177700000028  0.7500000000000000  0.4754822299999972
  0.2754822300000015  0.8500000000000014  0.3245177699999999
  0.3754822300000029  0.0499999999999972  0.4245177700000013
  0.4754822299999972  0.2500000000000000  0.5245177700000028
  0.5754822299999987  0.4500000000000028  0.6245177699999971
  0.6754822300000001  0.6499999999999986  0.7245177699999985
  0.7754822300000015  0.8500000000000014  0.8245177699999999
  0.8754822300000029  0.0499999999999972  0.9245177700000013
  0.9754822299999972  0.2500000000000000  0.0245177700000028
  0.0754822299999987  0.4500000000000028  0.1245177699999971
  0.1754822300000001  0.6499999999999986  0.2245177699999985
 
  0.00000000E+00  0.00000000E+00  0.00000000E+00
  0.00000000E+00  0.00000000E+00  0.00000000E+00
  0.00000000E+00  0.00000000E+00  0.00000000E+00
  0.00000000E+00  0.00000000E+00  0.00000000E+00
  0.00000000E+00  0.00000000E+00  0.00000000E+00
  0.00000000E+00  0.00000000E+00  0.00000000E+00
  0.00000000E+00  0.00000000E+00  0.00000000E+00
  0.00000000E+00  0.00000000E+00  0.00000000E+00
  0.00000000E+00  0.00000000E+00  0.00000000E+00
  0.00000000E+00  0.00000000E+00  0.00000000E+00
  0.00000000E+00  0.00000000E+00  0.00000000E+00
  0.00000000E+00  0.00000000E+00  0.00000000E+00
  0.00000000E+00  0.00000000E+00  0.00000000E+00
  0.00000000E+00  0.00000000E+00  0.00000000E+00
  0.00000000E+00  0.00000000E+00  0.00000000E+00
  0.00000000E+00  0.00000000E+00  0.00000000E+00
  0.00000000E+00  0.00000000E+00  0.00000000E+00
  0.00000000E+00  0.00000000E+00  0.00000000E+00
  0.00000000E+00  0.00000000E+00  0.00000000E+00
  0.00000000E+00  0.00000000E+00  0.00000000E+00
  0.00000000E+00  0.00000000E+00  0.00000000E+00
  0.00000000E+00  0.00000000E+00  0.00000000E+00
  0.00000000E+00  0.00000000E+00  0.00000000E+00
  0.00000000E+00  0.00000000E+00  0.00000000E+00
  0.00000000E+00  0.00000000E+00  0.00000000E+00
  0.00000000E+00  0.00000000E+00  0.00000000E+00
  0.00000000E+00  0.00000000E+00  0.00000000E+00
  0.00000000E+00  0.00000000E+00  0.00000000E+00
  0.00000000E+00  0.00000000E+00  0.00000000E+00
  0.00000000E+00  0.00000000E+00  0.00000000E+00
  0.00000000E+00  0.00000000E+00  0.00000000E+00
  0.00000000E+00  0.00000000E+00  0.00000000E+00
  0.00000000E+00  0.00000000E+00  0.00000000E+00
  0.00000000E+00  0.00000000E+00  0.00000000E+00
  0.00000000E+00  0.00000000E+00  0.00000000E+00
  0.00000000E+00  0.00000000E+00  0.00000000E+00
  0.00000000E+00  0.00000000E+00  0.00000000E+00
  0.00000000E+00  0.00000000E+00  0.00000000E+00
  0.00000000E+00  0.00000000E+00  0.00000000E+00
  0.00000000E+00  0.00000000E+00  0.00000000E+00
  0.00000000E+00  0.00000000E+00  0.00000000E+00
  0.00000000E+00  0.00000000E+00  0.00000000E+00
  0.00000000E+00  0.00000000E+00  0.00000000E+00
  0.00000000E+00  0.00000000E+00  0.00000000E+00
  0.00000000E+00  0.00000000E+00  0.00000000E+00
  0.00000000E+00  0.00000000E+00  0.00000000E+00
  0.00000000E+00  0.00000000E+00  0.00000000E+00
  0.00000000E+00  0.00000000E+00  0.00000000E+00
  0.00000000E+00  0.00000000E+00  0.00000000E+00
  0.00000000E+00  0.00000000E+00  0.00000000E+00
  0.00000000E+00  0.00000000E+00  0.00000000E+00
  0.00000000E+00  0.00000000E+00  0.00000000E+00
  0.00000000E+00  0.00000000E+00  0.00000000E+00
  0.00000000E+00  0.00000000E+00  0.00000000E+00
  0.00000000E+00  0.00000000E+00  0.00000000E+00
  0.00000000E+00  0.00000000E+00  0.00000000E+00
  0.00000000E+00  0.00000000E+00  0.00000000E+00
  0.00000000E+00  0.00000000E+00  0.00000000E+00
  0.00000000E+00  0.00000000E+00  0.00000000E+00
  0.00000000E+00  0.00000000E+00  0.00000000E+00
