Al20 Cl20 O20 -- Bulk
1.0
   3.6595006760000000    6.3404938059999996   -7.9997466319999999
  -3.6595006760000000    9.5107407100000003    0.0000000000000000
   3.6595006760000000    6.3404938059999996    7.9997466319999999
Al Cl O
20 20 20
direct
   0.8020897259999999    0.7500000000000000    0.6979102740000001 Al3+
   0.9020897260000000    0.9500000000000000    0.7979102740000000 Al3+
   0.0020897260000000    0.1500000000000000    0.8979102740000000 Al3+
   0.1020897260000000    0.3500000000000000    0.9979102740000000 Al3+
   0.2020897260000000    0.5500000000000000    0.0979102740000000 Al3+
   0.3020897260000000    0.7500000000000000    0.1979102740000000 Al3+
   0.4020897260000000    0.9500000000000000    0.2979102740000000 Al3+
   0.5020897260000000    0.1500000000000000    0.3979102740000000 Al3+
   0.6020897260000000    0.3500000000000000    0.4979102740000000 Al3+
   0.7020897260000000    0.5500000000000000    0.5979102740000000 Al3+
   0.0979102740000000    0.0500000000000000    0.2020897260000000 Al3+
   0.1979102740000000    0.2500000000000000    0.3020897260000000 Al3+
   0.2979102740000000    0.4500000000000000    0.4020897260000000 Al3+
   0.3979102740000000    0.6500000000000000    0.5020897260000000 Al3+
   0.4979102740000000    0.8500000000000000    0.6020897260000000 Al3+
   0.5979102740000000    0.0500000000000000    0.7020897260000000 Al3+
   0.6979102740000001    0.2500000000000000    0.8020897259999999 Al3+
   0.7979102740000000    0.4500000000000000    0.9020897260000000 Al3+
   0.8979102740000000    0.6500000000000000    0.0020897260000000 Al3+
   0.9979102740000000    0.8500000000000000    0.1020897260000000 Al3+
   0.9576081300000000    0.8500000000000000    0.6423918700000000 Cl-
   0.0576081300000000    0.0500000000000000    0.7423918700000000 Cl-
   0.1576081300000000    0.2500000000000000    0.8423918700000000 Cl-
   0.2576081300000000    0.4500000000000000    0.9423918700000000 Cl-
   0.3576081300000000    0.6500000000000000    0.0423918700000000 Cl-
   0.4576081300000000    0.8500000000000000    0.1423918700000000 Cl-
   0.5576081300000000    0.0500000000000000    0.2423918700000000 Cl-
   0.6576081300000000    0.2500000000000000    0.3423918700000000 Cl-
   0.7576081300000000    0.4500000000000000    0.4423918700000000 Cl-
   0.8576081300000000    0.6500000000000000    0.5423918700000000 Cl-
   0.9423918700000000    0.9500000000000000    0.2576081300000000 Cl-
   0.0423918700000000    0.1500000000000000    0.3576081300000000 Cl-
   0.1423918700000000    0.3500000000000000    0.4576081300000000 Cl-
   0.2423918700000000    0.5500000000000000    0.5576081300000000 Cl-
   0.3423918700000000    0.7500000000000000    0.6576081300000000 Cl-
   0.4423918700000000    0.9500000000000000    0.7576081300000000 Cl-
   0.5423918700000000    0.1500000000000000    0.8576081300000000 Cl-
   0.6423918700000000    0.3500000000000000    0.9576081300000000 Cl-
   0.7423918700000000    0.5500000000000000    0.0576081300000000 Cl-
   0.8423918700000000    0.7500000000000000    0.1576081300000000 Cl-
   0.6245177700000000    0.9500000000000000    0.5754822300000000 O2-
   0.7245177699999999    0.1500000000000000    0.6754822300000000 O2-
   0.8245177700000000    0.3500000000000000    0.7754822300000001 O2-
   0.9245177700000000    0.5500000000000000    0.8754822300000000 O2-
   0.0245177700000000    0.7500000000000000    0.9754822300000000 O2-
   0.1245177700000000    0.9500000000000000    0.0754822300000000 O2-
   0.2245177700000000    0.1500000000000000    0.1754822300000000 O2-
   0.3245177700000000    0.3500000000000000    0.2754822300000000 O2-
   0.4245177700000000    0.5500000000000000    0.3754822300000000 O2-
   0.5245177700000000    0.7500000000000000    0.4754822300000000 O2-
   0.2754822300000000    0.8500000000000000    0.3245177700000000 O2-
   0.3754822300000000    0.0500000000000000    0.4245177700000000 O2-
   0.4754822300000000    0.2500000000000000    0.5245177700000000 O2-
   0.5754822300000000    0.4500000000000000    0.6245177700000000 O2-
   0.6754822300000000    0.6500000000000000    0.7245177699999999 O2-
   0.7754822300000001    0.8500000000000000    0.8245177700000000 O2-
   0.8754822300000000    0.0500000000000000    0.9245177700000000 O2-
   0.9754822300000000    0.2500000000000000    0.0245177700000000 O2-
   0.0754822300000000    0.4500000000000000    0.1245177700000000 O2-
   0.1754822300000000    0.6500000000000000    0.2245177700000000 O2-
