Mg2 Al4 O8
1.0
   4.9482089900000004    0.0000000000000000    2.8568488300000001
   1.6494030000000000    4.6652156800000002    2.8568488300000001
   0.0000000000000000    0.0000000000000000    5.7136996499999997
Mg Al O
2 4 8
direct
   0.1250000000000000    0.1250000000000000    0.1250000000000000 Mg
   0.8750000000000000    0.8750000000000000    0.8750000000000000 Mg
   0.5000000000000000    0.5000000000000000    0.0000000000000000 Al
   0.5000000000000000    0.5000000000000000    0.5000000000000000 Al
   0.0000000000000000    0.5000000000000000    0.5000000000000000 Al
   0.5000000000000000   -0.0000000000000000    0.5000000000000000 Al
   0.7362793400000001    0.7362793400000001    0.7362793400000001 O
   0.2637206600000000    0.2637206600000000    0.7088390200000000 O
   0.2637206600000000    0.7088390200000000    0.2637206600000000 O
   0.7088390200000000    0.2637206600000000    0.2637206600000000 O
   0.7362793400000001    0.2911609800000000    0.7362793400000001 O
   0.2911609800000000    0.7362793400000001    0.7362793400000001 O
   0.2637206600000000    0.2637206600000000    0.2637206600000000 O
   0.7362793400000001    0.7362793400000001    0.2911609800000000 O
