pymatgen with grid density = 987 / number of atoms
0
Gamma
2 1 1
