Sr16 Al24 Cr4 O64
1.0
   9.5865829999999992    0.0000000000000000    0.0000000000000000
   0.0000000000000000   13.4438990000000000    0.0000000000000000
   0.0000000000000000    0.0000000000000000   13.4774110000000000
Sr Al Cr O
16 24 4 64
direct
   0.4672530000000000    0.2087139999999990    0.0050950000000000 Sr
   0.9713510000000000    0.9857150000000000    0.2678020000000000 Sr
   0.0257109999999990    0.7547469999999999    0.0054020000000000 Sr
   0.0327470000000000    0.7087140000000000    0.5050950000000000 Sr
   0.5327470000000000    0.7087140000000000    0.9949049999999990 Sr
   0.4591820000000000    0.4845319999999990    0.2868300000000000 Sr
   0.5286489999999990    0.4857149999999991    0.7678020000000000 Sr
   0.9672529999999990    0.2087139999999990    0.4949050000000000 Sr
   0.0408180000000000    0.9845320000000000    0.7868300000000000 Sr
   0.9591820000000000    0.4845319999999990    0.2131700000000000 Sr
   0.0286489999999990    0.4857149999999991    0.7321980000000000 Sr
   0.5408180000000000    0.9845320000000000    0.7131700000000001 Sr
   0.4713509999999990    0.9857150000000000    0.2321980000000000 Sr
   0.9742890000000000    0.2547470000000000    0.9945980000000000 Sr
   0.4742889999999990    0.2547470000000000    0.5054020000000000 Sr
   0.5257109999999990    0.7547469999999999    0.4945980000000000 Sr
   0.2581410000000000    0.6134809999999991    0.1275250000000000 Al
   0.0008600000000000    0.7360719999999999    0.2547310000000000 Al
   0.2622730000000000    0.6118749999999999    0.8754090000000000 Al
   0.2615800000000000    0.8636729999999990    0.6252150000000000 Al
   0.2424510000000000    0.8601829999999990    0.3743539999999990 Al
   0.7615800000000000    0.8636729999999990    0.8747849999999990 Al
   0.2575490000000000    0.3601830000000000    0.8743540000000000 Al
   0.4882769999999990    0.2378509999999990    0.2521910000000000 Al
   0.9991400000000000    0.2360719999999990    0.7452690000000000 Al
   0.4991400000000000    0.2360719999999990    0.7547309999999990 Al
   0.7384200000000001    0.3636729999999990    0.3747850000000000 Al
   0.2377270000000000    0.1118749999999990    0.3754090000000000 Al
   0.7418589999999990    0.1134810000000000    0.8724750000000000 Al
   0.9882770000000000    0.2378509999999990    0.2478090000000000 Al
   0.7622730000000000    0.6118749999999999    0.6245910000000000 Al
   0.0117229999999990    0.7378509999999990    0.7521909999999991 Al
   0.7424510000000000    0.8601829999999990    0.1256460000000000 Al
   0.2418590000000000    0.1134810000000000    0.6275250000000000 Al
   0.5008600000000001    0.7360719999999999    0.2452690000000000 Al
   0.7575489999999990    0.3601830000000000    0.6256459999999990 Al
   0.7581410000000000    0.6134809999999991    0.3724750000000000 Al
   0.7377270000000000    0.1118749999999990    0.1245910000000000 Al
   0.2384200000000000    0.3636729999999990    0.1252150000000000 Al
   0.5117229999999990    0.7378509999999990    0.7478089999999999 Al
   0.7004079999999990    0.9959370000000000    0.4874259999999990 Cr
   0.7995920000000000    0.4959369999999990    0.9874259999999990 Cr
   0.2004080000000000    0.9959370000000000    0.0125740000000000 Cr
   0.2995919999999990    0.4959369999999990    0.5125740000000000 Cr
   0.7723270000000000    0.6459490000000000    0.4985860000000000 O
   0.3955500000000000    0.1580290000000000    0.3306070000000000 O
   0.2723270000000000    0.6459490000000000    0.0014140000000000 O
   0.9213200000000000    0.6577560000000000    0.6719490000000000 O
   0.8595260000000000    0.0348640000000000    0.4513790000000000 O
   0.2054600000000000    0.9044470000000000    0.9285270000000000 O
   0.7276730000000000    0.1459490000000000    0.9985860000000000 O
   0.8859960000000000    0.5890510000000000    0.0414700000000000 O
   0.7639990000000000    0.8277289999999990    0.0001180000000000 O
   0.7360010000000000    0.3277290000000000    0.5001180000000000 O
   0.9258409999999990    0.6372110000000000    0.3229110000000000 O
   0.2639990000000000    0.8277289999999990    0.4998820000000000 O
   0.1137610000000000    0.9529169999999991    0.1095029999999990 O
   0.5770410000000000    0.3175000000000000    0.3332480000000000 O
   0.8855029999999990    0.1818759999999990    0.8310620000000000 O
   0.2945400000000000    0.4044470000000000    0.4285270000000000 O
   0.0786800000000000    0.1577559999999990    0.3280510000000000 O
   0.6404740000000000    0.5348640000000000    0.9513790000000000 O
   0.1105210000000000    0.3128309999999990    0.8137829999999990 O
   0.2355000000000000    0.9860970000000000    0.3401389999999990 O
   0.1039230000000000    0.8183960000000000    0.6727520000000000 O
   0.3960769999999990    0.3183960000000000    0.1727520000000000 O
   0.0770410000000000    0.3175000000000000    0.1667519999999990 O
   0.3859960000000000    0.5890510000000000    0.4585300000000000 O
   0.7743909999999991    0.9892209999999991    0.8377800000000001 O
   0.6044500000000000    0.6580290000000000    0.6693930000000000 O
   0.6105210000000000    0.3128309999999990    0.6862170000000000 O
   0.3862390000000000    0.4529169999999990    0.6095030000000000 O
   0.1404740000000000    0.5348640000000000    0.5486210000000000 O
   0.4258409999999990    0.6372110000000000    0.1770890000000000 O
   0.7945400000000000    0.4044470000000000    0.0714730000000000 O
   0.7645000000000001    0.4860970000000000    0.6598609999999990 O
   0.8894789999999990    0.8128310000000000    0.1862170000000000 O
   0.1144970000000000    0.6818759999999990    0.1689380000000000 O
   0.6137610000000000    0.9529169999999991    0.3904970000000000 O
   0.6140040000000000    0.0890509999999990    0.5414700000000000 O
   0.7355000000000000    0.9860970000000000    0.1598610000000000 O
   0.8960770000000000    0.3183960000000000    0.3272480000000000 O
   0.1044500000000000    0.6580290000000000    0.8306070000000000 O
   0.5741590000000000    0.1372110000000000    0.8229109999999999 O
   0.2256089999999990    0.4892209999999990    0.1622200000000000 O
   0.7256089999999999    0.4892209999999990    0.3377800000000000 O
   0.7054600000000001    0.9044470000000000    0.5714730000000000 O
   0.6144970000000000    0.6818759999999990    0.3310619999999990 O
   0.8955500000000001    0.1580290000000000    0.1693930000000000 O
   0.0741590000000000    0.1372110000000000    0.6770889999999991 O
   0.5786800000000001    0.1577559999999990    0.1719490000000000 O
   0.0742920000000000    0.8138460000000000    0.3464109999999990 O
   0.8862390000000000    0.4529169999999990    0.8904970000000000 O
   0.1140040000000000    0.0890509999999990    0.9585300000000001 O
   0.4229590000000000    0.8175000000000000    0.6667520000000000 O
   0.3894789999999990    0.8128310000000000    0.3137830000000000 O
   0.3855030000000000    0.1818759999999990    0.6689379999999990 O
   0.5742920000000000    0.8138460000000000    0.1535890000000000 O
   0.3595259999999990    0.0348640000000000    0.0486210000000000 O
   0.6039230000000000    0.8183960000000000    0.8272480000000000 O
   0.4213200000000000    0.6577560000000000    0.8280510000000000 O
   0.4257080000000000    0.3138459999999990    0.8464109999999990 O
   0.2360010000000000    0.3277290000000000    0.9998819999999990 O
   0.9257080000000000    0.3138459999999990    0.6535890000000000 O
   0.2743910000000000    0.9892209999999991    0.6622200000000000 O
   0.2645000000000000    0.4860970000000000    0.8401390000000000 O
   0.2276730000000000    0.1459490000000000    0.5014140000000000 O
   0.9229590000000000    0.8175000000000000    0.8332480000000000 O
