Cr_Al_C3_O1.90 ~[0.4722,0.4722,0.2963] 0
1.0
   9.7463007049999995   -8.1110154780000006   -6.6763721230000002
   9.7463034449999988    8.1110166679999995   -6.6763783129999998
  -4.3494582120000000   -0.0000008109999994   13.3584433209999993
Al Cr S O
15 1 24 96
direct
   0.2154124553622169    0.2314250865798963    0.2959394959498129 Al
   0.4827183290574751    0.9786564632224063    0.8082000404219423 Al
   0.9617603733806438    0.4599288645978344    0.7699567579186636 Al
   0.6885094908128235    0.7075638576978035    0.2592382349703038 Al
   0.2785072574980206    0.2733865099387918    0.6936939851103611 Al
   0.5243349076267974    0.0420369931658909    0.1958856746893332 Al
   0.0165858519978028    0.5410320564275992    0.2213889597603986 Al
   0.7543203802550770    0.7760771807129758    0.6869773765212107 Al
   0.5103678061267879    0.5261010784702759    0.6797172201344612 Al
   0.7948581050406741    0.2543013400276289    0.2028279871675495 Al
   0.2850180493733906    0.7712786965603493    0.2144297258196366 Al
   0.0101017094407502    0.0405635005588922    0.6917573790533346 Al
   0.9756551641006825    0.9796900322301147    0.2915254096064159 Al
   0.2311246850149746    0.7336402185514138    0.8292357158868999 Al
   0.7176502516244159    0.2349157942989487    0.8056652273560629 Al
   0.4729237028983189    0.4596490762733271    0.3025369228295928 Cr
   0.7588902519996175    0.9762477027839416   -0.0150139281790209 S
   0.0336739563946180    0.7386014874628695    0.5075936430118281 S
   0.5137321770958186    0.2424804590917770    0.4885115609310353 S
   0.2849024628785521    0.4620531072406591    0.0035550824035118 S
   0.8043995514093591    0.9576649158745776    0.3557432163276451 S
   0.0281075624545872    0.7023665625693075    0.8566754624360947 S
   0.5626939828524745    0.2139805829260606    0.8655690406683323 S
   0.2984386532184553    0.4585645166778373    0.3524448536125395 S
   0.0619505007091130    0.7202037434363040    0.1505988313704458 S
   0.3112418280302884    0.4368525512582982    0.6280819717048929 S
   0.8067772699806447    0.9677991919705832    0.6514857696306291 S
   0.5723624133214996    0.2084091904658975    0.1798093902293117 S
   0.7020132074117595    0.5654073532553548    0.6566599552160538 S
   0.9422553417117093    0.2990455064578794    0.1351192661965764 S
   0.4316541817177567    0.8107473507731339    0.1399824206716822 S
   0.2038289370749578    0.0658745786374007    0.6790453626297561 S
   0.7227368199619095    0.5041099649457603    0.9732039330412041 S
   0.9839739951440593    0.2694323781494996    0.4995938614433862 S
   0.4841786094554089    0.7580794020560854    0.4802747556932868 S
   0.2216007007088074    0.0266212926710114    1.0029632666940727 S
   0.4330609181911330    0.8091325404979148    0.8615054670043963 S
   0.6973878562454183    0.5485857688119258    0.3687903099198233 S
   0.1966902052522745    0.0464848720106539    0.3391090452952062 S
   0.9416602463821860    0.3154061264811155    0.8698306764594439 S
   0.5071363631879828    0.6846615011231251    0.8270550246029805 O
   0.7439706738637533    0.4362827377979576    0.2955876876701066 O
   0.2849634852028559    0.9439126287216995    0.3332602741618471 O
  -0.0017668730977393    0.1875772383646956    0.8241962716441725 O
   0.6813893481830010    0.5693744269486697    0.8875999389839471 O
   0.9239135659506907    0.2804337095211548    0.3962437034257000 O
   0.4266095195538391    0.7700477419208683    0.3531132915428148 O
   0.1981604565366514    0.0358637765262719    0.8821868304997045 O
   0.6250948924520103    0.5934411911373352    0.6976042272756607 O
   0.9098894619552684    0.3450342863532545    0.2196535285840953 O
   0.3770448151837555    0.8327965156768092    0.2126003287058398 O
   0.0956854731410202    0.0813225772005895    0.6591155939837103 O
   0.9837295522518487    0.8196358623841489    0.1718639260966536 O
   0.2353384164647885    0.5686387729167914    0.6476617863293335 O
   0.7330374001804663    0.0642872693360573    0.6648942142037457 O
   0.4960013820448640    0.3176740246557179    0.1511779617485545 O
   0.8443441446081003    0.9845776297039195    0.1637916291414637 O
   0.0811723150414638    0.7266501805656845    0.6195008251384160 O
   0.5862435940207492    0.2332751174600688    0.6388605679109783 O
   0.3192085483508061    0.4666605219118324    0.1227548250183992 O
   0.8862421093380660    0.8986110891922851    0.2957632241710677 O
   0.1360511262191645    0.6708419827386176    0.8080101169882967 O
   0.6482001042809526    0.1458417418596594    0.8032680108059436 O
   0.3822522743752245    0.4185405558931546    0.3054426105426138 O
   0.4380903686236944    0.8487761439933593    0.7808574426061106 O
   0.6855861020936682    0.5869771219524083    0.2636184593331117 O
   0.2083910687414114    0.0802626487750716    0.2779795924273258 O
   0.9445924018376930    0.3421356813800747    0.7912922831431326 O
   0.6660746732117844    0.6091386234610512    0.0855476900485922 O
   0.8954659126168155    0.3386115096716890    0.5384356446016301 O
   0.4091185920974763    0.8657526247183992    0.5778905557117459 O
   0.1502378346569544    0.0889546898056313    0.0639271315352394 O
   0.8083433137494245    0.4663849358983012    0.6962795121622345 O
   0.0397168344161493    0.2335795822144968    0.2010690725230912 O
   0.5502443041580494    0.7230340823239869    0.2059974389042996 O
   0.3084030410167072    0.9966685590378723    0.7236671349184669 O
   0.0470461378250010    0.6736543632485326    0.2230672105970166 O
   0.2918656140924125    0.4184240799643141    0.7311304514682617 O
   0.8239470192608948    0.9365844158774296    0.7412009400613101 O
   0.5619551702539541    0.1644550622311797    0.2287275076137348 O
   0.7347340276957177    0.8528853811048414    0.2712106150018108 O
   1.0014130045283671    0.5791314382575813    0.7789748349060863 O
   0.5097528038504070    0.0822024559944692    0.7931437967462946 O
   0.2502819822194047    0.3178188864462439    0.2807881351509232 O
   0.6346396192251182    0.9290079451402037    0.8800453089554920 O
   0.9220305991007222    0.6967349802090266    0.4186260664996222 O
   0.3814784096925473    0.1815687201899270    0.3785733399087128 O
   0.1199294785439558    0.4685638466718184    0.9167049957108155 O
   0.9719802241532109    0.6202050074574021    0.9834355757695441 O
   0.2382035295482688    0.3268207648658253    0.4464305997667193 O
   0.7108026462026164    0.8229794767143769    0.4557073816737635 O
   0.4769200935877662    0.1061447438067354    0.9939560281520868 O
   0.7746922534746264    0.6636629621376875    0.7207895715333883 O
   0.0093302914869675    0.4463511985611214    0.2210825125134352 O
   0.5020839625316462    0.9129615342828209    0.2013563215093629 O
   0.2464495403577812    0.1643855360466105    0.7073409723035543 O
   0.8835381745449244    0.5658958378930941    0.1217363873481572 O
   0.1280920619029580    0.2989340080684639    0.6110637388914616 O
   0.6056699253048923    0.7839542881569599    0.5824082112723420 O
   0.3822963936041652    0.0709668230975145    0.1417705879414503 O
   0.5246060218421769    0.8986443936867025    0.0241653449538535 O
   0.7822223617391221    0.6465159937100262    0.5169862486088985 O
   0.2727137670588186    0.1516727634714590    0.5324866251126708 O
   0.0312590749875747    0.4231846957015895    0.0511933714058626 O
   0.3784562522039532    0.5195856587869918    0.5056807835508392 O
   0.6159052928794034    0.2669086957272728    0.0213327902719407 O
   0.1228653481984329    0.7938245760262241    0.0422163485341892 O
   0.8826944475266574    0.0170760313847548    0.5142746096969414 O
   0.5536086165004821    0.3731416061467513    0.5931019997725631 O
   0.7940935164690768    0.0880843171936368    0.0381222882594869 O
   0.2916316203164347    0.6105128210637445    0.0620343214671337 O
   0.0341763512285073    0.8804317638159583    0.5668133365168673 O
   0.4607627877634868    0.4775953071834800    0.7157016163006639 O
   0.6826439094529984    0.2269697157015534    0.2269256551510942 O
   0.1852020833138824    0.7100014128198059    0.2191156172183470 O
   0.9190185627758141    0.9960599472008796    0.7331262573478321 O
   0.1120977640402156    0.9826659127649910    0.4621497582880850 O
   0.3695997428678988    0.7257203563135796    0.9619758093189031 O
   0.8785961525874172    0.1987115421193466    0.9437383607309835 O
   0.6101267373649285    0.4598863080638368    0.4457243052122435 O
   0.9834043435736614    0.1261886574166754    0.4547768297768248 O
   0.2053971983896056    0.9008947705928310    0.9330216247670631 O
   0.7211493881601362    0.4118701378151332    0.9806352944855521 O
   0.4823967786667466    0.6468644485360826    0.4606400367776813 O
   0.0565950737923605    0.0313762647142936    0.2861049369676121 O
   0.3072259537745728    0.7756939504081681    0.7748476246256666 O
   0.8131487532501165    0.2807764713567126    0.7804899117953821 O
   0.5457511426979297    0.5191939251947297    0.2742806033250473 O
   0.7079990654468018    0.0315767120396709    0.3224612575463336 O
   0.9545080900736888    0.7691785737021507    0.7901185431389026 O
   0.4501381390707135    0.2815073764816413    0.8100375322088842 O
   0.2307780975499523    0.5386649453271077    0.3182424424083807 O
   0.8299333253947049    0.9319916598214248    0.9366118392609032 O
   0.0754558184870244    0.6453287612875032    0.4206438828924535 O
   0.5750663928456157    0.1600753381572048    0.4133252679815010 O
   0.3430855319108919    0.4031594062689480    0.9359689319665154 O
