Cl8 O16
1.0
   5.6741720000000004    0.0000000000000000    0.0000000000000000
   0.0000000000000000    7.0763040000000004    0.0000000000000000
   0.0000000000000000    0.0000000000000000   10.9384800000000002
Cl O
8 16
direct
   0.8274150000000000    0.0074170000000000    0.6082750000000000 Cl
   0.3274150000000000    0.9925830000000000    0.8917250000000000 Cl
   0.6725850000000000    0.5074170000000000    0.3917250000000000 Cl
   0.1725850000000000    0.4925830000000000    0.1082750000000000 Cl
   0.1725850000000000    0.9925830000000000    0.3917250000000000 Cl
   0.6725850000000000    0.0074170000000000    0.1082750000000000 Cl
   0.3274150000000000    0.4925830000000000    0.6082750000000000 Cl
   0.8274150000000000    0.5074170000000000    0.8917250000000000 Cl
   0.7920760000000000    0.0942200000000000    0.4843000000000000 O
   0.2920760000000000    0.9057800000000000    0.0157000000000000 O
   0.7079240000000000    0.5942200000000001    0.5157000000000000 O
   0.2079240000000000    0.4057800000000000    0.9843000000000001 O
   0.2079240000000000    0.9057800000000000    0.5157000000000000 O
   0.7079240000000000    0.0942200000000000    0.9843000000000001 O
   0.2920760000000000    0.4057800000000000    0.4843000000000000 O
   0.7920760000000000    0.5942200000000001    0.0157000000000000 O
   0.9034350000000000    0.6390000000000000    0.7937869999999990 O
   0.4034350000000000    0.3610000000000000    0.7062130000000000 O
   0.5965650000000000    0.1390000000000000    0.2062129999999990 O
   0.0965650000000000    0.8610000000000000    0.2937869999999990 O
   0.0965650000000000    0.3610000000000000    0.2062129999999990 O
   0.5965650000000000    0.6390000000000000    0.2937869999999990 O
   0.4034350000000000    0.8610000000000000    0.7937869999999990 O
   0.9034350000000000    0.1390000000000000    0.7062130000000000 O
