Al16 S24 O96 -- Bulk
1.0
   9.7463007049999995   -8.1110154780000006   -6.6763721230000002
   9.7463034450000006    8.1110166679999995   -6.6763783129999998
  -4.3494582120000000   -0.0000008100000000   13.3584433199999992
Al S O
16 24 96
direct
   0.2152085300000000    0.2152081650000000    0.2869443750000000 Al3+
   0.4652085300000000    0.9652081650000000    0.7869443750000000 Al3+
   0.9652085300000000    0.4652081650000000    0.7869443750000000 Al3+
   0.7152085300000000    0.7152081650000000    0.2869443750000000 Al3+
   0.2847917600000000    0.2847912750000000    0.7130555650000000 Al3+
   0.5347917599999999    0.0347912750000000    0.2130555650000000 Al3+
   0.0347917600000000    0.5347912750000000    0.2130555650000000 Al3+
   0.7847917599999999    0.7847912750000000    0.7130555650000000 Al3+
   0.5277640729999999    0.5277643030000000    0.7036855740000000 Al3+
   0.7777640729999999    0.2777643030000000    0.2036855740000000 Al3+
   0.2777640730000000    0.7777643030000000    0.2036855740000000 Al3+
   0.0277640730000000    0.0277643030000000    0.7036855740000000 Al3+
   0.9722354000000000    0.9722360940000000    0.2963143800000000 Al3+
   0.2222354000000000    0.7222360940000000    0.7963143800000000 Al3+
   0.7222354000000000    0.2222360940000000    0.7963143800000000 Al3+
   0.4722354000000000    0.4722360940000000    0.2963143800000000 Al3+
   0.7696947730000000    0.9819500930000000    0.0000649200000000 S6+
   0.0196947730000000    0.7319500930000000    0.5000649200000000 S6+
   0.5196947730000000    0.2319500930000000    0.5000649200000000 S6+
   0.2696947730000000    0.4819500930000000    0.0000649200000000 S6+
   0.8031129330000000    0.9485323930000000    0.3577403220000000 S6+
   0.0531129330000000    0.6985323930000000    0.8577403200000000 S6+
   0.5531129330000000    0.1985323930000000    0.8577403200000000 S6+
   0.3031129330000000    0.4485323930000000    0.3577403220000000 S6+
   0.0546596660000000    0.6969846600000000    0.1454841060000000 S6+
   0.3046596660000000    0.4469846600000000    0.6454841059999999 S6+
   0.8046596660000001    0.9469846600000000    0.6454841059999999 S6+
   0.5546596660000001    0.1969846600000000    0.1454841050000000 S6+
   0.6968874300000000    0.5514680340000000    0.6422598630000000 S6+
   0.9468874300000000    0.3014680340000000    0.1422598630000000 S6+
   0.4468874300000000    0.8014680340000000    0.1422598630000000 S6+
   0.1968874300000000    0.0514680340000000    0.6422598630000000 S6+
   0.7303048230000000    0.5180497800000000    0.9999345600000000 S6+
   0.9803048230000000    0.2680497800000000    0.4999345600000000 S6+
   0.4803048230000000    0.7680497800000000    0.4999345600000000 S6+
   0.2303048230000000    0.0180497800000000    0.9999345600000000 S6+
   0.4453400200000000    0.8030149830000000    0.8545152400000000 S6+
   0.6953400199999999    0.5530149830000000    0.3545152400000000 S6+
   0.1953400200000000    0.0530149830000000    0.3545152400000000 S6+
   0.9453400199999999    0.3030149830000000    0.8545152400000000 S6+
   0.5130178260000000    0.6938596020000000    0.8416738980000000 O2-
   0.7630178260000000    0.4438596020000000    0.3416738980000000 O2-
   0.2630178260000000    0.9438596020000000    0.3416738980000000 O2-
   0.0130178260000000    0.1938596020000000    0.8416738980000000 O2-
   0.6764658830000000    0.5304114049999999    0.8764610870000000 O2-
   0.9264658830000000    0.2804114050000000    0.3764610870000000 O2-
   0.4264658830000000    0.7804114049999999    0.3764610870000000 O2-
   0.1764658830000000    0.0304114050000000    0.8764610870000000 O2-
   0.6208333860000000    0.5860439320000000    0.6956193460000000 O2-
   0.8708333860000000    0.3360439320000000    0.1956193460000000 O2-
   0.3708333860000000    0.8360439320000000    0.1956193460000000 O2-
   0.1208333860000000    0.0860439320000000    0.6956193460000000 O2-
   0.9869825370000000    0.8061398750000000    0.1583268070000000 O2-
   0.2369825370000000    0.5561398750000000    0.6583268070000000 O2-
   0.7369825370000000    0.0561398750000000    0.6583268070000000 O2-
   0.4869825370000000    0.3061398750000000    0.1583268070000000 O2-
   0.8235338679999999    0.9695884040000000    0.1235381930000000 O2-
   0.0735338680000000    0.7195884040000000    0.6235381930000000 O2-
   0.5735338679999999    0.2195884040000000    0.6235381930000000 O2-
   0.3235338680000000    0.4695884040000000    0.1235381930000000 O2-
   0.8791679240000000    0.9139549380000001    0.3043804140000000 O2-
   0.1291679240000000    0.6639549380000001    0.8043804140000000 O2-
   0.6291679240000000    0.1639549380000000    0.8043804140000000 O2-
   0.3791679240000000    0.4139549380000000    0.3043804140000000 O2-
   0.4394934050000000    0.8309979280000001    0.7669200500000000 O2-
   0.6894934050000000    0.5809979280000001    0.2669200500000000 O2-
   0.1894934050000000    0.0809979280000000    0.2669200500000000 O2-
   0.9394934050000000    0.3309979280000000    0.7669200500000000 O2-
   0.6730659630000000    0.5974252400000000    0.0827833400000000 O2-
   0.9230659630000000    0.3474252400000000    0.5827833400000000 O2-
   0.4230659630000000    0.8474252400000000    0.5827833400000000 O2-
   0.1730659630000000    0.0974252400000000    0.0827833400000000 O2-
   0.7931766000000000    0.4773138240000000    0.6912776819999999 O2-
   0.0431766000000000    0.2273138240000000    0.1912776800000000 O2-
   0.5431766000000000    0.7273138240000000    0.1912776800000000 O2-
   0.2931766000000000    0.9773138240000000    0.6912776800000000 O2-
   0.0605068900000000    0.6690020370000000    0.2330790200000000 O2-
   0.3105068900000000    0.4190020370000000    0.7330790200000000 O2-
   0.8105068900000000    0.9190020370000000    0.7330790200000000 O2-
   0.5605068900000000    0.1690020370000000    0.2330790200000000 O2-
   0.7448187580000000    0.8319900500000000    0.2845290900000000 O2-
   0.9948187580000000    0.5819900500000000    0.7845290900000000 O2-
   0.4948187580000000    0.0819900500000000    0.7845290900000000 O2-
   0.2448187580000000    0.3319900500000000    0.2845290900000000 O2-
   0.6352053700000000    0.9416037400000000    0.8909589470000000 O2-
   0.8852053700000000    0.6916037400000000    0.3909589470000000 O2-
   0.3852053700000000    0.1916037400000000    0.3909589470000000 O2-
   0.1352053700000000    0.4416037400000000    0.8909589470000000 O2-
   0.9851898100000001    0.5916222770000000    0.9781328700000000 O2-
   0.2351898100000000    0.3416222770000000    0.4781328700000000 O2-
   0.7351898100000001    0.8416222770000000    0.4781328700000000 O2-
   0.4851898100000000    0.0916222770000000    0.9781328700000000 O2-
   0.7551795019999999    0.6680080500000000    0.7154701100000000 O2-
   0.0051795020000000    0.4180080500000000    0.2154701100000000 O2-
   0.5051795019999999    0.9180080500000000    0.2154701100000000 O2-
   0.2551795020000000    0.1680080500000000    0.7154701100000000 O2-
   0.8647946320000000    0.5583960600000000    0.1090407530000000 O2-
   0.1147946320000000    0.3083960600000000    0.6090407530000000 O2-
   0.6147946320000000    0.8083960600000000    0.6090407530000000 O2-
   0.3647946320000000    0.0583960600000000    0.1090407530000000 O2-
   0.5148105070000000    0.9083805750000000    0.0218695660000000 O2-
   0.7648105070000000    0.6583805750000000    0.5218695660000000 O2-
   0.2648105070000000    0.1583805750000000    0.5218695660000000 O2-
   0.0148105070000000    0.4083805750000000    0.0218695660000000 O2-
   0.3792683100000000    0.5253915880000000    0.5305323000000000 O2-
   0.6292683100000001    0.2753915880000000    0.0305323000000000 O2-
   0.1292683100000000    0.7753915880000000    0.0305323000000000 O2-
   0.8792683100000001    0.0253915880000000    0.5305322980000000 O2-
   0.5432910430000000    0.3613676140000000    0.5663310380000000 O2-
   0.7932910430000000    0.1113676140000000    0.0663310400000000 O2-
   0.2932910430000000    0.6113676139999999    0.0663310400000000 O2-
   0.0432910430000000    0.8613676139999999    0.5663310380000000 O2-
   0.4344285140000000    0.4702295330000000    0.7124548270000000 O2-
   0.6844285140000000    0.2202295330000000    0.2124548270000000 O2-
   0.1844285140000000    0.7202295330000000    0.2124548270000000 O2-
   0.9344285140000000    0.9702295330000000    0.7124548270000000 O2-
   0.1207330860000000    0.9746086870000000    0.4694696920000000 O2-
   0.3707330860000000    0.7246086870000000    0.9694696920000000 O2-
   0.8707330860000000    0.2246086870000000    0.9694696900000001 O2-
   0.6207330860000000    0.4746086870000000    0.4694696900000000 O2-
   0.9567085500000000    0.1386318130000000    0.4336680670000000 O2-
   0.2067085500000000    0.8886318130000000    0.9336680670000000 O2-
   0.7067085500000000    0.3886318130000000    0.9336680670000000 O2-
   0.4567085500000000    0.6386318130000000    0.4336680670000000 O2-
   0.0655703340000000    0.0297704900000000    0.2875450480000000 O2-
   0.3155703340000000    0.7797704900000000    0.7875450480000000 O2-
   0.8155703340000000    0.2797704900000000    0.7875450480000000 O2-
   0.5655703340000000    0.5297704900000000    0.2875450480000000 O2-
   0.7068222300000000    0.0226860880000000    0.3087208030000000 O2-
   0.9568222300000000    0.7726860880000000    0.8087208030000000 O2-
   0.4568222300000000    0.2726860880000000    0.8087208030000000 O2-
   0.2068222300000000    0.5226860880000000    0.3087208030000000 O2-
   0.8269339320000000    0.9025752350000000    0.9172166700000000 O2-
   0.0769339320000000    0.6525752350000000    0.4172166700000000 O2-
   0.5769339320000000    0.1525752350000000    0.4172166700000000 O2-
   0.3269339320000000    0.4025752350000000    0.9172166700000000 O2-
