ALGO = Fast
EDIFF = 0.0007
ENCUT = 520.0
IBRION = 2
ISIF = 3
ISMEAR = -5
ISPIN = 2
LASPH = True
LDAU = True
LDAUJ = 0 0 0
LDAUL = 2 0 0
LDAUPRINT = 1
LDAUTYPE = 2
LDAUU = 3.9 0 0
LMAXMIX = 4
LORBIT = 11
LREAL = Auto
LWAVE = False
MAGMOM = 2*4.459 4*0.009000000000000001 8*0.047
NELM = 100
NSW = 99
PREC = Accurate
SIGMA = 0.05
