pymatgen with grid density = 1620 / number of atoms
0
Gamma
4 4 4
