Mn2 Al4 O8
1.0
   5.7889743999999999   -0.0000009000000000   -0.0000019800000000
   2.8944864199999998    5.0131513500000002   -0.0002110200000000
  -0.0000011000000000   -3.3422174099999999    4.7267081900000001
Mn Al O
2 4 8
direct
   0.0000001100000000    0.0000002400000000   -0.0000006200000000 Mn
   0.7499998900000000    0.4999997600000000    0.7500006200000000 Mn
   0.3750000000000000    0.2500000000000000    0.3750000000000000 Al
   0.3750000000000000    0.2500000000000000    0.8750000000000000 Al
   0.3750000000000000    0.7500000000000000    0.3750000000000000 Al
   0.8750000000000000    0.7500000000000000    0.3750000000000000 Al
   0.1413857700000000    0.2827570200000000    0.1413778400000000 O
   0.1741433000000000    0.2172418600000000    0.6086214900000000 O
   0.1413789300000000    0.7172408600000000    0.5758557800000000 O
   0.1413777100000000    0.7172438700000000    0.1413860300000000 O
   0.6086142300000000    0.2172429800000000    0.6086221600000000 O
   0.5758567000000000    0.2827581400000000    0.1413785100000000 O
   0.6086222900000000    0.7827561300000000    0.6086139700000001 O
   0.6086210700000000    0.7827591400000000    0.1741442200000000 O
