pymatgen with grid density = 1228 / number of atoms
0
Gamma
2 3 3
