K4 Al4 P8 O28
1.0
   9.7820769999999992    0.0000000000000000    0.0000000000000000
   0.0000000000000000    7.4533980000000000    0.0000000000000000
   0.0000000000000000    2.4014319999999998    7.8008699999999997
K Al P O
4 4 8 28
direct
   0.8179510000000000    0.1809160000000000    0.4418269999999990 K
   0.3179510000000000    0.8190839999999990    0.0581729999999990 K
   0.1820490000000000    0.8190839999999990    0.5581730000000000 K
   0.6820490000000000    0.1809160000000000    0.9418270000000000 K
   0.1004240000000000    0.2385260000000000    0.7406330000000000 Al
   0.6004240000000000    0.7614740000000000    0.7593670000000000 Al
   0.8995759999999990    0.7614740000000000    0.2593670000000000 Al
   0.3995760000000000    0.2385260000000000    0.2406329999999990 Al
   0.4030129999999990    0.1264259999999990    0.6686480000000000 P
   0.9030130000000000    0.8735740000000000    0.8313520000000000 P
   0.5969869999999990    0.8735740000000000    0.3313520000000000 P
   0.0969869999999990    0.1264259999999990    0.1686480000000000 P
   0.1307829999999990    0.4341740000000000    0.3116669999999990 P
   0.6307830000000000    0.5658259999999991    0.1883330000000000 P
   0.8692169999999990    0.5658259999999991    0.6883330000000000 P
   0.3692169999999990    0.4341740000000000    0.8116669999999990 P
   0.2808500000000000    0.4428280000000000    0.2542870000000000 O
   0.7808500000000000    0.5571720000000000    0.2457130000000000 O
   0.7191500000000001    0.5571720000000000    0.7457130000000000 O
   0.2191500000000000    0.4428280000000000    0.7542869999999990 O
   0.9991100000000001    0.9776800000000001    0.2755539999999990 O
   0.4991100000000001    0.0223200000000000    0.2244459999999990 O
   0.0008900000000000    0.0223200000000000    0.7244459999999990 O
   0.5008900000000001    0.9776800000000001    0.7755540000000000 O
   0.1042370000000000    0.3225989999999990    0.4969449999999990 O
   0.6042370000000000    0.6774009999999990    0.0030550000000000 O
   0.8957630000000000    0.6774009999999990    0.5030550000000000 O
   0.3957630000000000    0.3225989999999990    0.9969450000000000 O
   0.0919509999999990    0.1501700000000000    0.9795700000000001 O
   0.5919510000000000    0.8498300000000001    0.5204300000000001 O
   0.9080490000000000    0.8498300000000001    0.0204300000000000 O
   0.4080490000000000    0.1501700000000000    0.4795700000000001 O
   0.0467470000000000    0.3232150000000000    0.1973130000000000 O
   0.5467470000000000    0.6767850000000000    0.3026870000000000 O
   0.9532529999999991    0.6767850000000000    0.8026869999999990 O
   0.4532529999999990    0.3232150000000000    0.6973130000000000 O
   0.2590490000000000    0.0855240000000000    0.7452400000000000 O
   0.7590490000000000    0.9144760000000000    0.7547600000000001 O
   0.7409509999999990    0.9144760000000000    0.2547600000000000 O
   0.2409510000000000    0.0855240000000000    0.2452400000000000 O
   0.4305819999999990    0.6312280000000000    0.7612909999999991 O
   0.9305819999999990    0.3687720000000000    0.7387089999999999 O
   0.5694180000000000    0.3687720000000000    0.2387089999999990 O
   0.0694180000000000    0.6312280000000000    0.2612910000000000 O
