Al16 O24
1.0
  -4.4882700000000000    4.4882700000000000    4.4882700000000000
   4.4882700000000000   -4.4882700000000000    4.4882700000000000
   4.4882700000000000    4.4882700000000000   -4.4882700000000000
Al O
16 24
direct
   0.5000000000000000    0.0000000000000000    0.0000000000000000 Al
   0.9622419999999990    0.2500000000000000    0.2122420000000000 Al
   0.7877580000000000    0.0377580000000000    0.7500000000000000 Al
   0.7122419999999990    0.4622420000000000    0.2500000000000000 Al
   0.7500000000000000    0.7877580000000000    0.0377580000000000 Al
   0.7500000000000000    0.2877580000000000    0.5377580000000000 Al
   0.4622420000000000    0.2500000000000000    0.7122419999999990 Al
   0.0000000000000000    0.5000000000000000    0.0000000000000000 Al
   0.5000000000000000    0.5000000000000000    0.5000000000000000 Al
   0.0000000000000000    0.0000000000000000    0.5000000000000000 Al
   0.5377580000000000    0.7500000000000000    0.2877580000000000 Al
   0.2500000000000000    0.7122419999999990    0.4622420000000000 Al
   0.2500000000000000    0.2122420000000000    0.9622419999999990 Al
   0.2877580000000000    0.5377580000000000    0.7500000000000000 Al
   0.2122420000000000    0.9622419999999990    0.2500000000000000 Al
   0.0377580000000000    0.7500000000000000    0.7877580000000000 Al
   0.7708659999999991    0.0460320000000000    0.4974360000000000 O
   0.7291339999999999    0.2265700000000000    0.2751659999999990 O
   0.2734300000000000    0.0025640000000000    0.0485960000000000 O
   0.9539679999999990    0.5025640000000000    0.2291339999999990 O
   0.4539680000000000    0.2248339999999990    0.4514039999999990 O
   0.7734300000000001    0.7248340000000000    0.2708660000000000 O
   0.0485960000000000    0.2734300000000000    0.0025640000000000 O
   0.4514039999999990    0.4539680000000000    0.2248339999999990 O
   0.7248340000000000    0.2708660000000000    0.7734300000000001 O
   0.7751659999999990    0.5485960000000000    0.5460320000000000 O
   0.0025640000000000    0.0485960000000000    0.2734300000000000 O
   0.4974360000000000    0.7708659999999991    0.0460320000000000 O
   0.9974360000000000    0.9514039999999990    0.7265700000000000 O
   0.2248339999999990    0.4514039999999990    0.4539680000000000 O
   0.2751659999999990    0.7291339999999999    0.2265700000000000 O
   0.5025640000000000    0.2291339999999990    0.9539679999999990 O
   0.5485960000000000    0.5460320000000000    0.7751659999999990 O
   0.9514039999999990    0.7265700000000000    0.9974360000000000 O
   0.5460320000000000    0.7751659999999990    0.5485960000000000 O
   0.2265700000000000    0.2751659999999990    0.7291339999999999 O
   0.0460320000000000    0.4974360000000000    0.7708659999999991 O
   0.7265700000000000    0.9974360000000000    0.9514039999999990 O
   0.2291339999999990    0.9539679999999990    0.5025640000000000 O
   0.2708660000000000    0.7734300000000001    0.7248340000000000 O
