ALGO = Fast
EDIFF = 0.009600000000000001
ENCUT = 520.0
IBRION = 2
ISIF = 3
ISMEAR = -5
ISPIN = 2
LASPH = True
LMAXMIX = 4
LORBIT = 11
LREAL = Auto
LWAVE = False
MAGMOM = 192*0.0
NELM = 100
NSW = 99
PREC = Accurate
SIGMA = 0.05
