pymatgen with grid density = 1570 / number of atoms
0
Monkhorst
2 2 2
