Cs4 Al4 H96 Se8 O80
1.0
  12.4751469999999998    0.0000000000000000    0.0000000000000000
  -0.0000000000000000   12.4751469999999998   -0.0000000000000000
  -0.0000000000000000   -0.0000000000000000   12.4751469999999998
Cs Al H Se O
4 4 96 8 80
direct
   0.5000000000000000    0.0000000000000000   -0.0000000000000000 Cs
   0.0000000000000000    0.0000000000000000    0.5000000000000000 Cs
   0.0000000000000000    0.5000000000000000   -0.0000000000000000 Cs
   0.5000000000000000    0.5000000000000000    0.5000000000000000 Cs
   0.0000000000000000    0.5000000000000000    0.5000000000000000 Al
   0.0000000000000000    0.0000000000000000   -0.0000000000000000 Al
   0.5000000000000000    0.0000000000000000    0.5000000000000000 Al
   0.5000000000000000    0.5000000000000000   -0.0000000000000000 Al
   0.7014343500000000    0.0246482000000000    0.4519444100000000 H
   0.2014343500000000    0.4753518000000000    0.5480555900000000 H
   0.2985656500000000    0.5246482000000000    0.0480555900000000 H
   0.4753518000000000    0.5480555900000000    0.2014343500000000 H
   0.0480555900000000    0.2985656500000000    0.5246482000000000 H
   0.5480555900000000    0.2014343500000000    0.4753518000000000 H
   0.0246482000000000    0.4519444100000000    0.7014343500000000 H
   0.4519444100000000    0.7014343500000000    0.0246482000000000 H
   0.5246482000000000    0.0480555900000000    0.2985656500000000 H
   0.9753518000000000    0.9519444100000001    0.7985656500000000 H
   0.9519444100000001    0.7985656500000000    0.9753518000000000 H
   0.7985656500000000    0.9753518000000000    0.9519444100000001 H
   0.2985656500000000    0.9753518000000000    0.5480555900000000 H
   0.7985656500000000    0.5246482000000000    0.4519444100000000 H
   0.7014343500000000    0.4753518000000000    0.9519444100000001 H
   0.5246482000000000    0.4519444100000000    0.7985656500000000 H
   0.9519444100000001    0.7014343500000000    0.4753518000000000 H
   0.4519444100000000    0.7985656500000000    0.5246482000000000 H
   0.9753518000000000    0.5480555900000000    0.2985656500000000 H
   0.5480555900000000    0.2985656500000000    0.9753518000000000 H
   0.4753518000000000    0.9519444100000001    0.7014343500000000 H
   0.0246482000000000    0.0480555900000000    0.2014343500000000 H
   0.0480555900000000    0.2014343500000000    0.0246482000000000 H
   0.2014343500000000    0.0246482000000000    0.0480555900000000 H
   0.6857402300000001    0.0336611200000000    0.5808511000000000 H
   0.1857402300000000    0.4663388800000000    0.4191489000000000 H
   0.3142597700000000    0.5336611200000000    0.9191488999999990 H
   0.4663388800000000    0.4191489000000000    0.1857402300000000 H
   0.9191488999999990    0.3142597700000000    0.5336611200000000 H
   0.4191489000000000    0.1857402300000000    0.4663388800000000 H
   0.0336611200000000    0.5808511000000000    0.6857402300000001 H
   0.5808511000000000    0.6857402300000001    0.0336611200000000 H
   0.5336611200000000    0.9191488999999990    0.3142597700000000 H
   0.9663388800000000    0.0808511000000000    0.8142597700000000 H
   0.0808511000000000    0.8142597700000000    0.9663388800000000 H
   0.8142597700000000    0.9663388800000000    0.0808511000000000 H
   0.3142597700000000    0.9663388800000000    0.4191489000000000 H
   0.8142597700000000    0.5336611200000000    0.5808511000000000 H
   0.6857402300000001    0.4663388800000000    0.0808511000000000 H
   0.5336611200000000    0.5808511000000000    0.8142597700000000 H
   0.0808511000000000    0.6857402300000001    0.4663388800000000 H
   0.5808511000000000    0.8142597700000000    0.5336611200000000 H
   0.9663388800000000    0.4191489000000000    0.3142597700000000 H
   0.4191489000000000    0.3142597700000000    0.9663388800000000 H
   0.4663388800000000    0.0808511000000000    0.6857402300000001 H
   0.0336611200000000    0.9191488999999990    0.1857402300000000 H
   0.9191488999999990    0.1857402300000000    0.0336611200000000 H
   0.6171680600000000    0.1656128000000000    0.2205477700000000 H
   0.4975925000000000    0.1981450600000000    0.2249508600000000 H
   0.9975925000000000    0.3018549400000000    0.7750491400000000 H
   0.5024075000000000    0.6981450600000000    0.2750491400000000 H
   0.3018549400000000    0.7750491400000000    0.9975925000000000 H
   0.2750491400000000    0.5024075000000000    0.6981450600000000 H
   0.7750491400000000    0.9975925000000000    0.3018549400000000 H
   0.1981450600000000    0.2249508600000000    0.4975925000000000 H
   0.2249508600000000    0.4975925000000000    0.1981450600000000 H
   0.6981450600000000    0.2750491400000000    0.5024075000000000 H
   0.8018549400000000    0.7249508600000000    0.0024075000000000 H
   0.7249508600000000    0.0024075000000000    0.8018549400000000 H
   0.0024075000000000    0.8018549400000000    0.7249508600000000 H
   0.5024075000000000    0.8018549400000000    0.7750491400000000 H
   0.0024075000000000    0.6981450600000000    0.2249508600000000 H
   0.4975925000000000    0.3018549400000000    0.7249508600000000 H
   0.6981450600000000    0.2249508600000000    0.0024075000000000 H
   0.7249508600000000    0.4975925000000000    0.3018549400000000 H
   0.2249508600000000    0.0024075000000000    0.6981450600000000 H
   0.8018549400000000    0.7750491400000000    0.5024075000000000 H
   0.7750491400000000    0.5024075000000000    0.8018549400000000 H
   0.3018549400000000    0.7249508600000000    0.4975925000000000 H
   0.1981450600000000    0.2750491400000000    0.9975925000000000 H
   0.2750491400000000    0.9975925000000000    0.1981450600000000 H
   0.9975925000000000    0.1981450600000000    0.2750491400000000 H
   0.1171680600000000    0.1656128000000000    0.2794522300000000 H
   0.2794522300000000    0.1171680600000000    0.1656128000000000 H
   0.1656128000000000    0.2794522300000000    0.1171680600000000 H
   0.3343872000000000    0.7205477700000000    0.6171680600000000 H
   0.7794522300000000    0.3828319400000000    0.8343872000000000 H
   0.8343872000000000    0.7794522300000000    0.3828319400000000 H
   0.2205477700000000    0.8828319400000000    0.6656128000000000 H
   0.7205477700000000    0.6171680600000000    0.3343872000000000 H
   0.6656128000000000    0.2205477700000000    0.8828319400000000 H
   0.6171680600000000    0.3343872000000000    0.7205477700000000 H
   0.8828319400000000    0.6656128000000000    0.2205477700000000 H
   0.3828319400000000    0.8343872000000000    0.7794522300000000 H
   0.8828319400000000    0.8343872000000000    0.7205477700000000 H
   0.7205477700000000    0.8828319400000000    0.8343872000000000 H
   0.8343872000000000    0.7205477700000000    0.8828319400000000 H
   0.6656128000000000    0.2794522300000000    0.3828319400000000 H
   0.2205477700000000    0.6171680600000000    0.1656128000000000 H
   0.1656128000000000    0.2205477700000000    0.6171680600000000 H
   0.7794522300000000    0.1171680600000000    0.3343872000000000 H
   0.2794522300000000    0.3828319400000000    0.6656128000000000 H
   0.3343872000000000    0.7794522300000000    0.1171680600000000 H
   0.3828319400000000    0.6656128000000000    0.2794522300000000 H
   0.1171680600000000    0.3343872000000000    0.7794522300000000 H
   0.1857402300000000    0.0336611200000000    0.9191488999999990 H
   0.3101095500000000    0.1898904500000000    0.8101095500000001 Se
   0.8101095500000001    0.1898904500000000    0.6898904500000000 Se
   0.1898904500000000    0.6898904500000000    0.8101095500000001 Se
   0.3101095500000000    0.3101095500000000    0.3101095500000000 Se
   0.6898904500000000    0.8101095500000001    0.1898904500000000 Se
   0.6898904500000000    0.6898904500000000    0.6898904500000000 Se
   0.1898904500000000    0.8101095500000001    0.3101095500000000 Se
   0.8101095500000001    0.3101095500000000    0.1898904500000000 Se
   0.5448263000000000    0.1363243100000000    0.2113637100000000 O
   0.0448263000000000    0.3636756900000000    0.7886362900000000 O
   0.4551736999999990    0.6363243100000000    0.2886362900000000 O
   0.3636756900000000    0.7886362900000000    0.0448263000000000 O
   0.2886362900000000    0.4551736999999990    0.6363243100000000 O
   0.7886362900000000    0.0448263000000000    0.3636756900000000 O
   0.1363243100000000    0.2113637100000000    0.5448263000000000 O
   0.2113637100000000    0.5448263000000000    0.1363243100000000 O
   0.6363243100000000    0.2886362900000000    0.4551736999999990 O
   0.8636756900000000    0.7113637100000000    0.9551736999999991 O
   0.7113637100000000    0.9551736999999991    0.8636756900000000 O
   0.9551736999999991    0.8636756900000000    0.7113637100000000 O
   0.4551736999999990    0.8636756900000000    0.7886362900000000 O
   0.9551736999999991    0.6363243100000000    0.2113637100000000 O
   0.5448263000000000    0.3636756900000000    0.7113637100000000 O
   0.6363243100000000    0.2113637100000000    0.9551736999999991 O
   0.7113637100000000    0.5448263000000000    0.3636756900000000 O
   0.2113637100000000    0.9551736999999991    0.6363243100000000 O
   0.8636756900000000    0.7886362900000000    0.4551736999999990 O
   0.7886362900000000    0.4551736999999990    0.8636756900000000 O
   0.3636756900000000    0.7113637100000000    0.5448263000000000 O
   0.1363243100000000    0.2886362900000000    0.0448263000000000 O
   0.2886362900000000    0.0448263000000000    0.1363243100000000 O
   0.0448263000000000    0.1363243100000000    0.2886362900000000 O
   0.1496754200000000    0.0133727800000000    0.9868390900000000 O
   0.9868390900000000    0.1496754200000000    0.0133727800000000 O
   0.0133727800000000    0.9868390900000000    0.1496754200000000 O
   0.4866272200000000    0.0131609100000000    0.6496754200000000 O
   0.4868390900000000    0.3503245800000000    0.9866272200000000 O
   0.9866272200000000    0.4868390900000000    0.3503245800000000 O
   0.5131609100000000    0.8503245800000000    0.5133727800000000 O
   0.0131609100000000    0.6496754200000000    0.4866272200000000 O
   0.5133727800000000    0.5131609100000000    0.8503245800000000 O
   0.6496754200000000    0.4866272200000000    0.0131609100000000 O
   0.8503245800000000    0.5133727800000000    0.5131609100000000 O
   0.3503245800000000    0.9866272200000000    0.4868390900000000 O
   0.8503245800000000    0.9866272200000000    0.0131609100000000 O
   0.0131609100000000    0.8503245800000000    0.9866272200000000 O
   0.9866272200000000    0.0131609100000000    0.8503245800000000 O
   0.5133727800000000    0.9868390900000000    0.3503245800000000 O
   0.5131609100000000    0.6496754200000000    0.0133727800000000 O
   0.0133727800000000    0.5131609100000000    0.6496754200000000 O
   0.4868390900000000    0.1496754200000000    0.4866272200000000 O
   0.9868390900000000    0.3503245800000000    0.5133727800000000 O
   0.4866272200000000    0.4868390900000000    0.1496754200000000 O
   0.3503245800000000    0.5133727800000000    0.9868390900000000 O
   0.1496754200000000    0.4866272200000000    0.4868390900000000 O
   0.6496754200000000    0.0133727800000000    0.5131609100000000 O
   0.8142866300000000    0.2607685999999990    0.0670076600000000 O
   0.3142866300000000    0.2392313999999990    0.9329923400000000 O
   0.1857133700000000    0.7607686000000000    0.4329923400000000 O
   0.2392313999999990    0.9329923400000000    0.3142866300000000 O
   0.4329923400000000    0.1857133700000000    0.7607686000000000 O
   0.9329923400000000    0.3142866300000000    0.2392313999999990 O
   0.2607685999999990    0.0670076600000000    0.8142866300000000 O
   0.0670076600000000    0.8142866300000000    0.2607685999999990 O
   0.7607686000000000    0.4329923400000000    0.1857133700000000 O
   0.7392314000000000    0.5670076600000000    0.6857133700000000 O
   0.5670076600000000    0.6857133700000000    0.7392314000000000 O
   0.6857133700000000    0.7392314000000000    0.5670076600000000 O
   0.1857133700000000    0.7392314000000000    0.9329923400000000 O
   0.6857133700000000    0.7607686000000000    0.0670076600000000 O
   0.8142866300000000    0.2392313999999990    0.5670076600000000 O
   0.7607686000000000    0.0670076600000000    0.6857133700000000 O
   0.5670076600000000    0.8142866300000000    0.2392313999999990 O
   0.0670076600000000    0.6857133700000000    0.7607686000000000 O
   0.7392314000000000    0.9329923400000000    0.1857133700000000 O
   0.9329923400000000    0.1857133700000000    0.7392314000000000 O
   0.2392313999999990    0.5670076600000000    0.8142866300000000 O
   0.2607685999999990    0.4329923400000000    0.3142866300000000 O
   0.4329923400000000    0.3142866300000000    0.2607685999999990 O
   0.3142866300000000    0.2607685999999990    0.4329923400000000 O
   0.2332913200000000    0.2332913200000000    0.2332913200000000 O
   0.2667086800000000    0.7332913200000000    0.2332913200000000 O
   0.7332913200000000    0.2332913200000000    0.2667086800000000 O
   0.7667086800000000    0.7667086800000000    0.7667086800000000 O
   0.7667086800000000    0.7332913200000000    0.2667086800000000 O
   0.7332913200000000    0.2667086800000000    0.7667086800000000 O
   0.2667086800000000    0.7667086800000000    0.7332913200000000 O
   0.2332913200000000    0.2667086800000000    0.7332913200000000 O
