Al4 O6
1.0
   4.5868450000000003   -2.4025140000000000    0.0000000000000000
   4.5868450000000003    2.4025140000000000    0.0000000000000000
   3.3284479999999999    0.0000000000000000    3.9664410000000001
Al O
4 6
direct
   0.1479039999999990    0.1479039999999990    0.1479039999999990 Al
   0.3520959999999990    0.3520959999999990    0.3520959999999990 Al
   0.6479039999999990    0.6479039999999990    0.6479039999999990 Al
   0.8520960000000000    0.8520960000000000    0.8520960000000000 Al
   0.5561460000000000    0.9438540000000000    0.2500000000000000 O
   0.7500000000000000    0.4438539999999990    0.0561459999999990 O
   0.2500000000000000    0.5561460000000000    0.9438540000000000 O
   0.9438540000000000    0.2500000000000000    0.5561460000000000 O
   0.0561459999999990    0.7500000000000000    0.4438539999999990 O
   0.4438539999999990    0.0561459999999990    0.7500000000000000 O
