pymatgen with grid density = 636 / number of atoms
0
Monkhorst
4 4 4
