Cr2 Cl6
1.0
  -5.2479740000000001   -3.0304530000000001    0.0000000000000000
   5.2479740000000001   -3.0304530000000001    0.0000000000000000
   0.0000000000000000    1.9659000000000000    6.2802499999999997
Cr Cl
2 6
direct
   0.8333189999999990    0.1666810000000000    0.0000000000000000 Cr
   0.1666810000000000    0.8333189999999990    0.0000000000000000 Cr
   0.4311500000000000    0.0716810000000000    0.7875580000000000 Cl
   0.9283190000000000    0.5688500000000001    0.2124420000000000 Cl
   0.7908780000000000    0.7908780000000000    0.7868740000000000 Cl
   0.2091220000000000    0.2091220000000000    0.2131259999999990 Cl
   0.0716810000000000    0.4311500000000000    0.7875580000000000 Cl
   0.5688500000000001    0.9283190000000000    0.2124420000000000 Cl
