Al4 Fe2 O8                              
   1.00000000000000     
     5.0323336792626856    0.0000082415104280    2.9054135289015837
     1.6774493975500548    4.7445284285070803    2.9054155983171888
    -0.0000010224335087    0.0000020720400146    5.8108270873642409
  Al              Fe              O             
     4     2     8
Direct
  0.5000013357173535  0.5000013357173382  0.5000013357174203
  0.5000013357173403  0.5000013357173623  0.9999959928478840
  0.5000013357174171  0.9999959928478894  0.5000013357173623
  0.9999959928478961  0.5000013357174171  0.5000013357173403
  0.8750000000000000  0.8750000000000000  0.8750000000000000
  0.1250000000000000  0.1250000000000000  0.1250000000000000
  0.7345469131616204  0.7345449131615276  0.7345459131620485
  0.2654545455259326  0.2654555455261091  0.7036363534213718
  0.2654535455265590  0.7036363534214161  0.2654555455261091
  0.7036363534214702  0.2654535455265590  0.2654545455259326
  0.7345459131620276  0.2963632505147722  0.7345469131616765
  0.2963632505148147  0.7345459131620276  0.7345449131615412
  0.2654555455260375  0.2654545455259151  0.2654535455265858
  0.7345449131615412  0.7345469131616765  0.2963622505147330
 
  0.00000000E+00  0.00000000E+00  0.00000000E+00
  0.00000000E+00  0.00000000E+00  0.00000000E+00
  0.00000000E+00  0.00000000E+00  0.00000000E+00
  0.00000000E+00  0.00000000E+00  0.00000000E+00
  0.00000000E+00  0.00000000E+00  0.00000000E+00
  0.00000000E+00  0.00000000E+00  0.00000000E+00
  0.00000000E+00  0.00000000E+00  0.00000000E+00
  0.00000000E+00  0.00000000E+00  0.00000000E+00
  0.00000000E+00  0.00000000E+00  0.00000000E+00
  0.00000000E+00  0.00000000E+00  0.00000000E+00
  0.00000000E+00  0.00000000E+00  0.00000000E+00
  0.00000000E+00  0.00000000E+00  0.00000000E+00
  0.00000000E+00  0.00000000E+00  0.00000000E+00
  0.00000000E+00  0.00000000E+00  0.00000000E+00
