pymatgen with grid density = 1656 / number of atoms
0
Gamma
4 4 4
