Al4 Fe2 O8
1.0
   4.9765730999999995    0.0000079900000000    2.8732203400000000
   1.6588623600000001    4.6919569000000001    2.8732223399999999
  -0.0000010000000000    0.0000020000000000    5.7464406900000000
Al Fe O
4 2 884
direct
   0.4999976200000000    0.4999976200000000    0.4999976200000000 Al
   0.4999976200000000    0.4999976200000000    0.0000071400000000 Al
   0.4999976200000000    0.0000071400000000    0.4999976200000000 Al
   0.0000071400000000    0.4999976200000000    0.4999976200000000 Al
   0.8750000000000000    0.8750000000000000    0.8750000000000000 Fe
   0.1250000000000000    0.1250000000000000    0.1250000000000000 Fe
   0.7347677700000000    0.7347657700000000    0.7347667700000000 O
   0.2652395900000000    0.2652405900000000    0.7042812200000000 O
   0.2652385900000000    0.7042812200000000    0.2652405900000000 O
   0.7042812200000000    0.2652385900000000    0.2652395900000000 O
   0.7347667700000000    0.2957006800000000    0.7347677700000000 O
   0.2957006800000000    0.7347667700000000    0.7347657700000000 O
   0.2652405900000000    0.2652395900000000    0.2652385900000000 O
   0.7347657700000000    0.7347677700000000    0.2956996800000000 O
