Al16 O24
1.0
   4.8864310000000000    0.0000000000000000    0.0000000000000000
   0.0000000000000000    8.3968380000000007    0.0000000000000000
   0.0000000000000000    0.0000000000000000    9.0248000000000008
Al O
16 24
direct
   0.6761330000000000    0.1524289999999990    0.2068680000000000 Al
   0.8238670000000000    0.6524289999999990    0.7068679999999991 Al
   0.6834009999999990    0.8398949999999999    0.0160219999999990 Al
   0.8165990000000000    0.3398950000000000    0.5160220000000000 Al
   0.3165989999999990    0.1601050000000000    0.5160220000000000 Al
   0.1723529999999990    0.0309600000000000    0.0061509999999990 Al
   0.6855370000000000    0.1538850000000000    0.7947069999999991 Al
   0.1855369999999990    0.3461150000000000    0.7947069999999991 Al
   0.3144630000000000    0.8461150000000000    0.2947070000000000 Al
   0.8276469999999990    0.9690400000000001    0.5061510000000000 Al
   0.6723530000000000    0.4690400000000000    0.0061509999999990 Al
   0.1761329999999990    0.3475709999999990    0.2068680000000000 Al
   0.3238669999999990    0.8475710000000000    0.7068679999999991 Al
   0.8144629999999990    0.6538849999999991    0.2947070000000000 Al
   0.3276469999999990    0.5309600000000000    0.5061510000000000 Al
   0.1834009999999990    0.6601049999999991    0.0160219999999990 Al
   0.9772480000000000    0.5117150000000000    0.1417250000000000 O
   0.3431220000000000    0.8390510000000000    0.9057419999999990 O
   0.0207660000000000    0.8239559999999990    0.1348710000000000 O
   0.4824679999999991    0.6686590000000000    0.6475259999999990 O
   0.8431219999999990    0.6609490000000000    0.9057419999999990 O
   0.3424780000000000    0.1686470000000000    0.8801319999999990 O
   0.9792339999999990    0.1760439999999990    0.6348710000000000 O
   0.1568780000000000    0.3390510000000000    0.4057420000000000 O
   0.9824680000000000    0.8313410000000000    0.6475259999999990 O
   0.5207660000000000    0.6760440000000000    0.1348710000000000 O
   0.5227520000000000    0.0117150000000000    0.6417250000000000 O
   0.6568780000000000    0.1609489999999990    0.4057420000000000 O
   0.6578109999999990    0.5013400000000000    0.4123549999999990 O
   0.5175320000000000    0.3313410000000000    0.1475260000000000 O
   0.0175320000000000    0.1686590000000000    0.1475260000000000 O
   0.0227519999999990    0.4882849999999990    0.6417250000000000 O
   0.1578109999999990    0.9986600000000001    0.4123549999999990 O
   0.1575220000000000    0.6686470000000000    0.3801319999999990 O
   0.4792340000000000    0.3239559999999990    0.6348710000000000 O
   0.6575219999999991    0.8313530000000000    0.3801319999999990 O
   0.4772480000000000    0.9882850000000000    0.1417250000000000 O
   0.8421890000000000    0.0013400000000000    0.9123549999999990 O
   0.3421889999999990    0.4986600000000000    0.9123549999999990 O
   0.8424779999999999    0.3313530000000000    0.8801319999999990 O
