pymatgen with grid density = 1677 / number of atoms
0
Gamma
4 4 1
