Al16 O24
1.0
   5.6433080000000002    0.0205670000000000    0.0222419999999990
  -2.8038419999999999    4.8975320000000000   -0.0222419999999990
   0.0544220000000000   -0.0314200000000000   13.6745219999999996
Al O
16 24
direct
   0.4693179999999990    0.7261670000000000    0.2070640000000000 Al
   0.7916130000000000    0.4038720000000000    0.1228170000000000 Al
   0.9598289999999990    0.7251510000000000    0.3398339999999990 Al
   0.1417560000000000    0.0537300000000000    0.1607060000000000 Al
   0.9605070000000000    0.2349780000000000    0.3392210000000000 Al
   0.4703340000000000    0.2356559999999990    0.3398339999999990 Al
   0.1317890000000000    0.0636970000000000    0.5480140000000000 Al
   0.4621920000000000    0.7332930000000000    0.4521659999999990 Al
   0.6341820000000000    0.0719100000000000    0.6604150000000000 Al
   0.6335109999999990    0.5619750000000000    0.6610079999999990 Al
   0.1235759999999990    0.5613040000000000    0.6604150000000000 Al
   0.8023580000000000    0.3931270000000000    0.8775910000000000 Al
   0.1247060000000000    0.0707800000000000    0.7934789999999990 Al
   0.2969489999999990    0.3985729999999990    0.0002600000000000 Al
   0.4523300000000000    0.7431550000000000    0.8396830000000000 Al
   0.7969120000000000    0.8985360000000000    0.0002600000000000 Al
   0.7975829999999990    0.3979020000000000    0.2583310000000000 O
   0.2825700000000000    0.3698980000000000    0.2543510000000000 O
   0.8255870000000000    0.9129159999999999    0.2543510000000000 O
   0.2881550000000000    0.9073310000000000    0.2523060000000000 O
   0.4482279999999990    0.2437969999999990    0.0869210000000000 O
   0.9714769999999990    0.2240079999999990    0.0831930000000000 O
   0.1307620000000000    0.0647240000000000    0.4129690000000000 O
   0.9516880000000000    0.7472580000000000    0.0869210000000000 O
   0.4632110000000000    0.7322740000000000    0.5873680000000000 O
   0.9632849999999999    0.7288070000000000    0.5945450000000000 O
   0.4666780000000000    0.2322000000000000    0.5945450000000000 O
   0.9627939999999990    0.2326909999999990    0.5943630000000000 O
   0.1274730000000000    0.5648690000000000    0.4056800000000000 O
   0.6310810000000000    0.5644040000000000    0.4058779999999990 O
   0.7964009999999990    0.3990840000000000    0.7419519999999999 O
   0.6306160000000000    0.0680120000000000    0.4056800000000000 O
   0.1183750000000000    0.0771110000000000    0.9214300000000001 O
   0.6422089999999990    0.0497120000000000    0.9134350000000000 O
   0.1457740000000000    0.5532760000000000    0.9134350000000000 O
   0.6224600000000000    0.5730250000000000    0.9172389999999990 O
   0.7684759999999990    0.8840380000000000    0.7459890000000000 O
   0.3058559999999990    0.8896300000000000    0.7480400000000000 O
   0.4755580000000000    0.7199270000000000    0.0790189999999990 O
   0.3114480000000000    0.4270089999999990    0.7459890000000000 O
