pymatgen with grid density = 4180 / number of atoms
0
Monkhorst
12 12 12
