Cr2
1.0
  -1.1732440000000000    2.0321189999999998    1.6595210000000000
  -1.1735300000000000   -2.0321189999999998    1.6593190000000000
   2.3466320000000001    0.0002470000000000    1.6593200000000001
Cr
2
direct
   0.5000000000000000    0.5000000000000000    0.5000000000000000 Cr
   0.0000000000000000    0.0000000000000000    0.0000000000000000 Cr
