Cr_Al ~[0.1250,0.6250,0.6250] 0
1.0
   8.3872179619999994   -4.7445119460000003    2.9054114620000004
   6.7097841000000003    4.7445345999999997    0.0000020410000001
   5.0323326579999996    0.0000103140000000    8.7162406170000004
Al Cr Fe O
15 1 8 32
direct
   0.7432555493226478    0.2792442923305097    0.7538379399091057 Al
   1.0206949921701844    0.5115684595003004    0.0047552239249008 Al
   0.2605015666577141    0.7563876310185937    0.2210634473641098 Al
   0.5050621543876128   -0.0064436886582326    0.4771177175565646 Al
   0.6211181409533388    0.1609040722042051    0.0949324486490406 Al
   0.8217411274574684    0.3766837585879816    0.4215891914858974 Al
   0.3291567498081697    0.8780553166239804    0.8771958504141616 Al
   0.4852498419726528    0.5206041792828199    0.9758182352282299 Al
   0.7881032538117796    0.6969518623360381    0.2419843160869696 Al
   0.0037694124000983    0.9728871983252803    0.5196166872912880 Al
   0.2233874601588553    0.2918424894127601    0.7397353644969895 Al
   0.8906113823850591    0.3996790489884661    0.8491983253612699 Al
   0.1103101518235481    0.6159632584918963    0.1757906712231435 Al
   0.3553334335497293    0.8941356032547638    0.3922443871442595 Al
   0.6167092129212618    0.0868757569903702    0.6522819208592712 Al
   0.1150914317897782    0.6265592954580776    0.6145424771691328 Cr
   0.5893258134325546    0.4478573489066403    0.2979526734923255 Fe
   0.8137045417273145    0.7257706515981703    0.5342217472817502 Fe
   0.0915750393205300    0.8876811402078355    0.8145620665654141 Fe
   0.3199256054231011    0.2125583844038058    0.0455095624873050 Fe
   0.8781434101465078    0.0679571824153032    0.2264583947767747 Fe
   0.2050049147905339    0.3431905948347118    0.4222348200306308 Fe
   0.4218788544728025    0.5237738549941298    0.6872269832540646 Fe
   0.6843703435431301    0.8424213574877490    0.9224790462647050 Fe
   0.6494363016550185    0.4197781183906799    0.0758320935134436 O
   0.8851806818479991    0.6617448252309029    0.3400013703196090 O
   0.1380317639819508    0.8584669907573308    0.6398780541954336 O
   0.3812105398373388    0.1355628685209974    0.8621394648146350 O
   0.7542819477435864    0.0247032587105437    0.7206840201510569 O
  -0.0250596945493201    0.2954851736241306    0.9891542862967737 O
   0.2343156381078658    0.5165479792107099    0.2872398161332855 O
   0.5178155971330863    0.7689512530288182    0.4412573032168895 O
   0.6250133154998865    0.3674747680906131    0.6312315128275851 O
   0.8610398301031841    0.6060206812000100    0.8999416712472861 O
   0.1354190240439477    0.8244989263595216    0.1526860504201150 O
   0.4183389722806800    0.1042652364558449    0.3347301989291245 O
   0.9522697150993515    0.2538408625454546    0.5379947173239213 O
   0.2277278260671652    0.4857276334680339    0.7431546021414210 O
   0.4829125756900071    0.7741444093079596   -0.0603480204071473 O
   0.7098472505882440    0.9944089243370914    0.2493841969343243 O
   0.8775963409079987    0.1503456125525618    0.8373864744989906 O
   0.1494736980954939    0.4093342962837605    0.1010435013359584 O
   0.3614829741628592    0.6648934497998521    0.3717659377067916 O
   0.6712195414733836    0.9000132329916103    0.6096372360855365 O
   0.5035647296277884    0.2840171781173071    0.9553420465311601 O
   0.7798569934302170    0.5013206293889868    0.2850999485094459 O
   0.0481864560559589    0.7814363188593565    0.4610008194720118 O
   0.2628729890577643    0.0005595108616170    0.7514339748228591 O
   0.8916281859631636    0.1067006789276508    0.3810286104900620 O
   0.1313271278917852    0.3967902682956297    0.6369437171462891 O
   0.3745504249306978    0.6433788821229974    0.8901723856910845 O
   0.6010685780748037    0.9096308408474167    0.1651743354958679 O
   0.7378245433519497    0.4945902674217050    0.7659257261429303 O
   1.0254646410233230    0.7158886105511303    0.0161109399117493 O
   0.2283213167495039    0.9764396277607452    0.3105862072017574 O
   0.4742790513873643    0.2508626542091865    0.5299936580595135 O
