Al32 O48
1.0
   5.6580370000000002    0.0000000000000000    0.0000000000000000
   0.0000000000000000    5.6568819999999995    0.0000000000000000
   0.0000000000000000    5.3103220000000002   23.6778790000000008
Al O
32 48
direct
   0.2469620000000000    0.3084900000000000    0.2089560000000000 Al
   0.2645639999999990    0.0371380000000000    0.9587680000000000 Al
   0.2342270000000000    0.1774230000000000    0.0791500000000000 Al
   0.2339540000000000    0.6701619999999990    0.0800620000000000 Al
   0.2469620000000000    0.6915100000000001    0.2910439999999990 Al
   0.2342270000000000    0.8225770000000000    0.4208500000000001 Al
   0.2339540000000000    0.3298379999999990    0.4199380000000000 Al
   0.2500570000000000    0.3769510000000000    0.6233730000000000 Al
   0.2645639999999990    0.9628620000000000    0.5412319999999990 Al
   0.2539590000000000    0.5000000000000000    0.7500000000000000 Al
   0.2500570000000000    0.6230490000000000    0.8766269999999990 Al
   0.0079140000000000    0.8505010000000000    0.6695439999999990 Al
   0.0079140000000000    0.1494990000000000    0.8304560000000000 Al
   0.9920859999999990    0.8505010000000000    0.1695440000000000 Al
   0.9920859999999990    0.1494990000000000    0.3304559999999990 Al
   0.7354360000000000    0.9628620000000000    0.0412320000000000 Al
   0.7499429999999990    0.6230490000000000    0.3766270000000000 Al
   0.7530380000000000    0.3084900000000000    0.7089559999999990 Al
   0.7660460000000000    0.3298379999999990    0.9199379999999990 Al
   0.7660460000000000    0.6701619999999990    0.5800620000000000 Al
   0.7354360000000000    0.0371380000000000    0.4587679999999990 Al
   0.7530380000000000    0.6915100000000001    0.7910440000000000 Al
   0.7460410000000000    0.5000000000000000    0.2500000000000000 Al
   0.7499429999999990    0.3769510000000000    0.1233730000000000 Al
   0.7657729999999990    0.8225770000000000    0.9208500000000001 Al
   0.7657729999999990    0.1774230000000000    0.5791500000000001 Al
   0.5003020000000000    0.1520080000000000    0.3296840000000000 Al
   0.5000000000000000    0.5000000000000000    0.5000000000000000 Al
   0.5000000000000000    0.5000000000000000    0.0000000000000000 Al
   0.5003020000000000    0.8479920000000000    0.1703160000000000 Al
   0.4996980000000000    0.1520080000000000    0.8296840000000000 Al
   0.4996980000000000    0.8479920000000000    0.6703160000000000 Al
   0.2702880000000000    0.2507200000000000    0.0021190000000000 O
   0.2692200000000000    0.7428410000000000    0.0024410000000000 O
   0.2477549999999990    0.0767650000000000    0.1655640000000000 O
   0.2478540000000000    0.6156400000000001    0.1625029999999990 O
   0.2702880000000000    0.7492800000000001    0.4978809999999990 O
   0.2692200000000000    0.2571589999999990    0.4975590000000000 O
   0.2540000000000000    0.6047129999999999    0.6666810000000000 O
   0.2541290000000000    0.0706140000000000    0.6604620000000000 O
   0.2540000000000000    0.3952870000000000    0.8333189999999990 O
   0.2541290000000000    0.9293859999999990    0.8395380000000000 O
   0.2477549999999990    0.9232349999999990    0.3344360000000000 O
   0.2478540000000000    0.3843600000000000    0.3374970000000000 O
   0.0227710000000000    0.4143610000000000    0.0887230000000000 O
   0.9917520000000000    0.0832290000000000    0.9144939999999990 O
   0.0066660000000000    0.7343689999999991    0.7462850000000000 O
   0.0066660000000000    0.2656310000000000    0.7537149999999990 O
   0.0082480000000000    0.0832290000000000    0.4144940000000000 O
   0.0227710000000000    0.5856390000000000    0.4112770000000000 O
   0.0082480000000000    0.9167710000000000    0.0855060000000000 O
   0.9933339999999991    0.2656310000000000    0.2537149999999990 O
   0.9772289999999991    0.5856390000000000    0.9112770000000000 O
   0.9917520000000000    0.9167710000000000    0.5855060000000000 O
   0.9772289999999991    0.4143610000000000    0.5887230000000000 O
   0.9933339999999991    0.7343689999999991    0.2462849999999990 O
   0.7307800000000001    0.2571589999999990    0.9975590000000000 O
   0.7458710000000000    0.9293859999999990    0.3395380000000000 O
   0.7521460000000000    0.6156400000000001    0.6625030000000000 O
   0.7521460000000000    0.3843600000000000    0.8374969999999990 O
   0.7307800000000001    0.7428410000000000    0.5024410000000000 O
   0.7460000000000000    0.3952870000000000    0.3333190000000000 O
   0.7522449999999991    0.0767650000000000    0.6655639999999990 O
   0.7458710000000000    0.0706140000000000    0.1604620000000000 O
   0.7297119999999990    0.7492800000000001    0.9978809999999991 O
   0.7522449999999991    0.9232349999999990    0.8344360000000000 O
   0.7297119999999990    0.2507200000000000    0.5021190000000000 O
   0.7460000000000000    0.6047129999999999    0.1666810000000000 O
   0.5008110000000000    0.7326119999999990    0.2477700000000000 O
   0.5197470000000000    0.4234830000000000    0.5805080000000000 O
   0.5267240000000000    0.9182410000000000    0.5860580000000000 O
   0.5197470000000000    0.5765169999999999    0.9194920000000000 O
   0.5008110000000000    0.2673880000000000    0.2522300000000000 O
   0.4732760000000000    0.9182410000000000    0.0860580000000000 O
   0.4802530000000000    0.5765169999999999    0.4194920000000000 O
   0.4732760000000000    0.0817590000000000    0.4139420000000000 O
   0.4991890000000000    0.2673880000000000    0.7522300000000001 O
   0.4991890000000000    0.7326119999999990    0.7477700000000000 O
   0.5267240000000000    0.0817590000000000    0.9139419999999990 O
   0.4802530000000000    0.4234830000000000    0.0805080000000000 O
