pymatgen with grid density = 1186 / number of atoms
0
Gamma
4 4 5
