Al4 O6
1.0
   2.7701639999999998   -4.8643669999999997    0.0000000000000000
   2.7701639999999998    4.8643669999999997    0.0000000000000000
   0.0000000000000000    0.0000000000000000    4.9687409999999996
Al O
4 6
direct
   0.0045980000000000    0.6706340000000000    0.9311389999999991 Al
   0.6706340000000000    0.0045980000000000    0.9311389999999991 Al
   0.3293660000000000    0.9954020000000000    0.4311390000000000 Al
   0.9954020000000000    0.3293660000000000    0.4311390000000000 Al
   0.2284310000000000    0.2284310000000000    0.4943200000000000 O
   0.0977570000000000    0.6603640000000000    0.5855710000000000 O
   0.6603640000000000    0.0977570000000000    0.5855710000000000 O
   0.3396360000000000    0.9022429999999990    0.0855710000000000 O
   0.9022429999999990    0.3396360000000000    0.0855710000000000 O
   0.7715689999999999    0.7715689999999999    0.9943200000000001 O
