Al24 Fe12 O48 -- Bulk
1.0
   6.7097851220000004    4.7445325279999997   -5.8108250459999997
  -8.3872189840000004    4.7445140180000003    2.9054156249999998
   1.6774483760000001    4.7445305019999999    8.7162426849999992
Al Fe O
24 12 48
direct
   0.3333333330000000    0.4166660000000000    0.7500020040000001 Al3+
   0.0000000000000000    0.2499993320000000    0.2500020040000000 Al3+
   0.6666666670000000    0.5833326650000000    0.2500020040000000 Al3+
   0.0000000000000000    0.7499993320000000    0.7500020040000001 Al3+
   0.6666666670000000    0.0833326650000000    0.7500020040000001 Al3+
   0.3333333330000000    0.9166660000000000    0.2500020040000000 Al3+
   0.1666684480000000    0.3333335560000000    0.9999993320000000 Al3+
   0.8333351140000000    0.1666668900000000    0.4999993330000000 Al3+
   0.5000017800000000    0.5000002220000000    0.4999993320000000 Al3+
   0.8333351140000000    0.6666668900000000    0.9999993320000000 Al3+
   0.5000017800000000    0.0000002230000000    0.9999993330000000 Al3+
   0.1666684480000000    0.8333335560000000    0.4999993320000000 Al3+
   0.4999982200000000    0.4999984420000000    0.9999993320000000 Al3+
   0.1666648860000000    0.3333317750000000    0.4999993330000000 Al3+
   0.8333315520000000    0.6666651080000000    0.4999993320000000 Al3+
   0.1666648860000000    0.8333317750000000    0.9999993330000000 Al3+
   0.8333315520000000    0.1666651080000000    0.9999993320000000 Al3+
   0.4999982200000000    0.9999984420000000    0.4999993320000000 Al3+
   0.3333333330000000    0.1666686700000000    0.9999993320000000 Al3+
   0.0000000000000000    0.0000020040000000    0.4999993330000000 Al3+
   0.6666666670000000    0.3333353370000000    0.4999993320000000 Al3+
   0.0000000000000000    0.5000020040000001    0.9999993330000000 Al3+
   0.6666666670000000    0.8333353370000000    0.9999993330000000 Al3+
   0.3333333330000000    0.6666686700000000    0.4999993330000000 Al3+
   0.3333333330000000    0.2291666670000000    0.3125000000000000 Fe2+
   0.0000000000000000    0.0625000000000000    0.8125000000000000 Fe2+
   0.6666666670000000    0.3958333330000000    0.8125000000000000 Fe2+
   0.0000000000000000    0.5625000000000000    0.3125000000000000 Fe2+
   0.6666666670000000    0.8958333330000000    0.3125000000000000 Fe2+
   0.3333333330000000    0.7291666670000000    0.8125000000000000 Fe2+
   0.3333333330000000    0.6041666670000000    0.1875000000000000 Fe2+
   0.0000000000000000    0.4375000000000000    0.6875000000000000 Fe2+
   0.6666666670000000    0.7708333330000000    0.6875000000000000 Fe2+
   0.0000000000000000    0.9375000000000000    0.1875000000000000 Fe2+
   0.6666666670000000    0.2708333330000000    0.1875000000000000 Fe2+
   0.3333333330000000    0.1041666670000000    0.6875000000000000 Fe2+
   0.3333330000000000    0.2993930440000000    0.1018188700000000 O2-
   0.9999996670000000    0.1327263770000000    0.6018188700000000 O2-
   0.6666663330000000    0.4660597100000000    0.6018188700000000 O2-
   0.9999996670000000    0.6327263770000000    0.1018188700000000 O2-
   0.6666663330000000    0.9660597100000000    0.1018188700000000 O2-
   0.3333330000000000    0.7993930440000000    0.6018188700000000 O2-
   0.1872730640000000    0.4609092600000000    0.6172732220000000 O2-
   0.8539397300000000    0.2942425920000000    0.1172732220000000 O2-
   0.5206063980000000    0.6275759260000000    0.1172732220000000 O2-
   0.8539397300000000    0.7942425920000000    0.6172732220000000 O2-
   0.5206063980000000    0.1275759260000000    0.6172732230000000 O2-
   0.1872730640000000    0.9609092600000000    0.1172732230000000 O2-
   0.4793936020000000    0.6069700280000000    0.6172727220000001 O2-
   0.1460602700000000    0.4403033620000000    0.1172727220000000 O2-
   0.8127269360000000    0.7736366950000000    0.1172727220000000 O2-
   0.1460602700000000    0.9403033620000000    0.6172727220000001 O2-
   0.8127269360000000    0.2736366950000000    0.6172727220000001 O2-
   0.4793936020000000    0.1069700280000000    0.1172727220000000 O2-
   0.3333330000000000    0.3148483230000000    0.6172722230000000 O2-
   0.9999996670000000    0.1481816570000000    0.1172722230000000 O2-
   0.6666663330000000    0.4815149900000000    0.1172722230000000 O2-
   0.9999996670000000    0.6481816570000000    0.6172722230000000 O2-
   0.6666663330000000    0.9815149900000000    0.6172722230000000 O2-
   0.3333330000000000    0.8148483240000000    0.1172722230000000 O2-
   0.1872721120000000    0.2263631000000000    0.8827280380000000 O2-
   0.8539387800000000    0.0596964330000000    0.3827280380000000 O2-
   0.5206054460000000    0.3930297660000000    0.3827280380000000 O2-
   0.8539387800000000    0.5596964330000000    0.8827280380000000 O2-
   0.5206054460000000    0.8930297659999999    0.8827280380000000 O2-
   0.1872721120000000    0.7263631000000000    0.3827280380000000 O2-
   0.3333336670000000    0.5184852080000000    0.8827270380000000 O2-
   0.0000003330000000    0.3518185420000000    0.3827270380000000 O2-
   0.6666670000000000    0.6851518750000000    0.3827270380000000 O2-
   0.0000003330000000    0.8518185420000000    0.8827270380000000 O2-
   0.6666670000000000    0.1851518750000000    0.8827270380000000 O2-
   0.3333336670000000    0.0184852080000000    0.3827270380000000 O2-
   0.3333336670000000    0.5339390600000000    0.3981818200000000 O2-
   0.0000003330000000    0.3672723940000000    0.8981818200000000 O2-
   0.6666670000000000    0.7006057270000000    0.8981818200000000 O2-
   0.0000003330000000    0.8672723940000000    0.3981818200000000 O2-
   0.6666670000000000    0.2006057270000000    0.3981818200000000 O2-
   0.3333336670000000    0.0339390600000000    0.8981818200000000 O2-
   0.4793948880000000    0.3724249870000000    0.8827270380000000 O2-
   0.1460615540000000    0.2057583200000000    0.3827270380000000 O2-
   0.8127282200000000    0.5390916540000000    0.3827270380000000 O2-
   0.1460615540000000    0.7057583200000001    0.8827270380000000 O2-
   0.8127282200000000    0.0390916540000000    0.8827270380000000 O2-
   0.4793948880000000    0.8724249870000000    0.3827270380000000 O2-
