Al16 O24
1.0
   3.9985830000000000    4.0022399999999996    0.0000000000000000
  -3.9985830000000000    4.0022399999999996    0.0000000000000000
   0.0000000000000000    3.7681760000000000   11.8356890000000003
Al O
16 24
direct
   0.8739619999999990    0.1260379999999990    0.7500000000000000 Al
   0.6771750000000000    0.6529619999999990    0.6580760000000000 Al
   0.1690460000000000    0.6522500000000000    0.6599180000000000 Al
   0.5367069999999990    0.8075479999999990    0.4179250000000000 Al
   0.4632929999999990    0.1924519999999990    0.5820750000000000 Al
   0.0000000000000000    0.0000000000000000    0.5000000000000000 Al
   0.3228250000000000    0.3470379999999990    0.3419240000000000 Al
   0.8309540000000000    0.3477500000000000    0.3400820000000000 Al
   0.1924519999999990    0.4632929999999990    0.0820750000000000 Al
   0.1260379999999990    0.8739619999999990    0.2500000000000000 Al
   0.6529619999999990    0.6771750000000000    0.1580760000000000 Al
   0.0000000000000000    0.0000000000000000    0.0000000000000000 Al
   0.6522500000000000    0.1690460000000000    0.1599180000000000 Al
   0.8075479999999990    0.5367069999999990    0.9179250000000000 Al
   0.3470379999999990    0.3228250000000000    0.8419240000000000 Al
   0.3477500000000000    0.8309540000000000    0.8400820000000000 Al
   0.4179060000000000    0.4236640000000000    0.6691180000000000 O
   0.9142840000000000    0.4320710000000000    0.6765420000000000 O
   0.4151579999999990    0.8856820000000000    0.6750790000000000 O
   0.2421650000000000    0.7666839999999990    0.5051559999999991 O
   0.9210119999999991    0.8982690000000000    0.6636050000000000 O
   0.2496400000000000    0.2319149999999990    0.4954190000000000 O
   0.7503600000000000    0.7680850000000000    0.5045809999999999 O
   0.0789880000000000    0.1017310000000000    0.3363950000000000 O
   0.7578349999999990    0.2333160000000000    0.4948439999999991 O
   0.5848420000000000    0.1143179999999990    0.3249209999999990 O
   0.0857160000000000    0.5679290000000000    0.3234579999999990 O
   0.8856820000000000    0.4151579999999990    0.1750789999999990 O
   0.5820940000000000    0.5763360000000000    0.3308820000000000 O
   0.8982690000000000    0.9210119999999991    0.1636050000000000 O
   0.4236640000000000    0.4179060000000000    0.1691180000000000 O
   0.7680850000000000    0.7503600000000000    0.0045810000000000 O
   0.4320710000000000    0.9142840000000000    0.1765420000000000 O
   0.2333160000000000    0.7578349999999990    0.9948440000000000 O
   0.7666839999999990    0.2421650000000000    0.0051560000000000 O
   0.5679290000000000    0.0857160000000000    0.8234579999999990 O
   0.2319149999999990    0.2496400000000000    0.9954189999999991 O
   0.5763360000000000    0.5820940000000000    0.8308820000000000 O
   0.1017310000000000    0.0789880000000000    0.8363950000000000 O
   0.1143179999999990    0.5848420000000000    0.8249210000000000 O
