pymatgen with grid density = 635 / number of atoms
0
Monkhorst
4 4 4
