Al2 Cl6
1.0
  -5.2163019999999998   -3.0134400000000001    0.0000000000000000
   5.2163019999999998   -3.0134400000000001    0.0000000000000000
   0.0000000000000000    1.9579040000000001    6.3586289999999996
Al Cl
2 6
direct
   0.1666170000000000    0.8333830000000000    0.0000000000000000 Al
   0.8333830000000000    0.1666170000000000    0.0000000000000000 Al
   0.7954730000000000    0.7954730000000000    0.7887330000000000 Cl
   0.2045270000000000    0.2045270000000000    0.2112669999999990 Cl
   0.9315030000000000    0.5683200000000000    0.2103680000000000 Cl
   0.4316800000000000    0.0684970000000000    0.7896320000000000 Cl
   0.0684970000000000    0.4316800000000000    0.7896320000000000 Cl
   0.5683200000000000    0.9315030000000000    0.2103680000000000 Cl
